\ Frozen-prefix tail reoptimization
Minimize
 obj: y_1_1 + 2 y_1_2 + 3 y_1_3 + 4 y_1_4 + 5 y_1_5 + 6 y_1_6 + 7 y_1_7 + 8 y_1_8 + 9 y_1_9 + 10 y_1_10 + 11 y_1_11 + 12 y_1_12 + 13 y_1_13 + 14 y_1_14 + 15 y_1_15 + 16 y_1_16 + 17 y_1_17 + 18 y_1_18 + 19 y_1_19 + 20 y_1_20 + 21 y_1_21 + 22 y_1_22 + 23 y_1_23 + 24 y_1_24 + 25 y_1_25 + 26 y_1_26 + 27 y_1_27 + 28 y_1_28 + 29 y_1_29 + 30 y_1_30 + 31 y_1_31 + 32 y_1_32 + 33 y_1_33 + 34 y_1_34 + 35 y_1_35 + 36 y_1_36 + 37 y_1_37 + 38 y_1_38 + 39 y_1_39 + 40 y_1_40 + 41 y_1_41 + 42 y_1_42 + 43 y_1_43 + 44 y_1_44 + 45 y_1_45 + 46 y_1_46 + 47 y_1_47 + 48 y_1_48 + 49 y_1_49 + 50 y_1_50 + 51 y_1_51 + 52 y_1_52 + 53 y_1_53 + 54 y_1_54 + 55 y_1_55 + 56 y_1_56 + 57 y_1_57 + 58 y_1_58 + 59 y_1_59 + 60 y_1_60 + 61 y_1_61 + 62 y_1_62 + 63 y_1_63 + 64 y_1_64 + 65 y_1_65 + 66 y_1_66 + 67 y_1_67 + 68 y_1_68 + 69 y_1_69 + 70 y_1_70 + 71 y_1_71 + 72 y_1_72 + 73 y_1_73 + 74 y_1_74 + 75 y_1_75 + 76 y_1_76 + 77 y_1_77 + 78 y_1_78 + 79 y_1_79 + 80 y_1_80 + 81 y_1_81 + 82 y_1_82 + 83 y_1_83 + 84 y_1_84 + 85 y_1_85 + 86 y_1_86 + 87 y_1_87 + 88 y_1_88 + 89 y_1_89 + 90 y_1_90 + 91 y_1_91 + 92 y_1_92 + 93 y_1_93 + 94 y_1_94 + 95 y_1_95 + 96 y_1_96 + 97 y_1_97 + 98 y_1_98 + 99 y_1_99 + 100 y_1_100 + 101 y_1_101 + 102 y_1_102 + 103 y_1_103 + 104 y_1_104 + 105 y_1_105 + 106 y_1_106 + 107 y_1_107 + 108 y_1_108 + 109 y_1_109 + 110 y_1_110 + 111 y_1_111 + 112 y_1_112 + 113 y_1_113 + 114 y_1_114 + 115 y_1_115 + 116 y_1_116 + 117 y_1_117 + 118 y_1_118 + 119 y_1_119 + 120 y_1_120 + 121 y_1_121 + 122 y_1_122 + 123 y_1_123 + 124 y_1_124 + 125 y_1_125 + 126 y_1_126 + 127 y_1_127 + 128 y_1_128 + 129 y_1_129 + 130 y_1_130 + 131 y_1_131 + 132 y_1_132 + 133 y_1_133 + 134 y_1_134 + 135 y_1_135 + 136 y_1_136 + 137 y_1_137 + 138 y_1_138 + y_2_1 + 2 y_2_2 + 3 y_2_3 + 4 y_2_4 + 5 y_2_5 + 6 y_2_6 + 7 y_2_7 + 8 y_2_8 + 9 y_2_9 + 10 y_2_10 + 11 y_2_11 + 12 y_2_12 + 13 y_2_13 + 14 y_2_14 + 15 y_2_15 + 16 y_2_16 + 17 y_2_17 + 18 y_2_18 + 19 y_2_19 + 20 y_2_20 + 21 y_2_21 + 22 y_2_22 + 23 y_2_23 + 24 y_2_24 + 25 y_2_25 + 26 y_2_26 + 27 y_2_27 + 28 y_2_28 + 29 y_2_29 + 30 y_2_30 + 31 y_2_31 + 32 y_2_32 + 33 y_2_33 + 34 y_2_34 + 35 y_2_35 + 36 y_2_36 + 37 y_2_37 + 38 y_2_38 + 39 y_2_39 + 40 y_2_40 + 41 y_2_41 + 42 y_2_42 + 43 y_2_43 + 44 y_2_44 + 45 y_2_45 + 46 y_2_46 + 47 y_2_47 + 48 y_2_48 + 49 y_2_49 + 50 y_2_50 + 51 y_2_51 + 52 y_2_52 + 53 y_2_53 + 54 y_2_54 + 55 y_2_55 + 56 y_2_56 + 57 y_2_57 + 58 y_2_58 + 59 y_2_59 + 60 y_2_60 + 61 y_2_61 + 62 y_2_62 + 63 y_2_63 + 64 y_2_64 + 65 y_2_65 + 66 y_2_66 + 67 y_2_67 + 68 y_2_68 + 69 y_2_69 + y_3_1 + 2 y_3_2 + 3 y_3_3 + 4 y_3_4 + 5 y_3_5 + 6 y_3_6 + 7 y_3_7 + 8 y_3_8 + 9 y_3_9 + 10 y_3_10 + 11 y_3_11 + 12 y_3_12 + 13 y_3_13 + 14 y_3_14 + 15 y_3_15 + 16 y_3_16 + 17 y_3_17 + 18 y_3_18 + 19 y_3_19 + 20 y_3_20 + 21 y_3_21 + 22 y_3_22 + 23 y_3_23 + 24 y_3_24 + 25 y_3_25 + 26 y_3_26 + 27 y_3_27 + 28 y_3_28 + 29 y_3_29 + 30 y_3_30 + 31 y_3_31 + 32 y_3_32 + 33 y_3_33 + 34 y_3_34 + 35 y_3_35 + 36 y_3_36 + 37 y_3_37 + 38 y_3_38 + 39 y_3_39 + 40 y_3_40 + 41 y_3_41 + 42 y_3_42 + 43 y_3_43 + 44 y_3_44 + 45 y_3_45 + 46 y_3_46 + y_4_1 + 2 y_4_2 + 3 y_4_3 + 4 y_4_4 + 5 y_4_5 + 6 y_4_6 + 7 y_4_7 + 8 y_4_8 + 9 y_4_9 + 10 y_4_10 + 11 y_4_11 + 12 y_4_12 + 13 y_4_13 + 14 y_4_14 + 15 y_4_15 + 16 y_4_16 + 17 y_4_17 + 18 y_4_18 + 19 y_4_19 + 20 y_4_20 + 21 y_4_21 + 22 y_4_22 + 23 y_4_23 + 24 y_4_24 + 25 y_4_25 + 26 y_4_26 + 27 y_4_27 + 28 y_4_28 + 29 y_4_29 + 30 y_4_30 + 31 y_4_31 + 32 y_4_32 + 33 y_4_33 + 34 y_4_34
Subject To
 r0000: x_00000 + x_00138 + x_00139 + x_00140 + x_00141 + x_00142 + x_00143 + x_00144 + x_00145 + x_00146 + x_00147 + x_00148 + x_00149 + x_00150 + x_00151 + x_00152 + x_01248 + x_01249 + x_01250 + x_01251 + x_01252 + x_01253 + x_01254 + x_01255 + x_01256 = 1
 r0001: x_00001 + x_00153 + x_00154 + x_00155 + x_00156 + x_00157 + x_00158 + x_00159 + x_00160 + x_00161 + x_00162 + x_00163 + x_00164 + x_00165 + x_00166 + x_00167 + x_01257 + x_01258 + x_01259 + x_01260 + x_01261 + x_01262 + x_01263 + x_01264 + x_01265 + x_01266 + x_01987 = 1
 r0002: x_00002 + x_00168 + x_00169 + x_00170 + x_00171 + x_00172 + x_00173 + x_00174 + x_00175 + x_00176 + x_00177 + x_00178 + x_00179 + x_01267 + x_01268 + x_01269 + x_01270 + x_01271 + x_01272 + x_01273 + x_01274 = 1
 r0003: x_00003 + x_00153 + x_00180 + x_00181 + x_00182 + x_00183 + x_00184 + x_00185 + x_00186 + x_00187 + x_00188 + x_00189 + x_00190 + x_00191 + x_00192 + x_00193 + x_00194 + x_00195 + x_00196 + x_00197 + x_01275 + x_01276 + x_01277 + x_01278 + x_01279 + x_01280 + x_01281 + x_01282 + x_01283 + x_01284 + x_01285 + x_01286 + x_01287 + x_01288 + x_01289 + x_01290 + x_01291 + x_01292 + x_01988 + x_01989 = 1
 r0004: x_00004 + x_00154 + x_00198 + x_00199 + x_00200 + x_00201 + x_00202 + x_00203 + x_00204 + x_00205 + x_00206 + x_00207 + x_00208 + x_00209 + x_00210 + x_00211 + x_00212 + x_00213 + x_00214 + x_00215 + x_00216 + x_01257 + x_01258 + x_01259 + x_01293 + x_01294 + x_01295 + x_01296 + x_01297 + x_01298 + x_01299 + x_01300 + x_01301 + x_01302 + x_01303 + x_01304 + x_01305 + x_01306 + x_01987 + x_01990 = 1
 r0005: x_00005 + x_00217 + x_00218 + x_00219 + x_00220 + x_00221 + x_00222 + x_00223 + x_00224 + x_00225 + x_00226 + x_00227 + x_00228 + x_00229 + x_00230 + x_00231 + x_01307 + x_01308 + x_01309 + x_01310 + x_01311 + x_01312 + x_01313 + x_01314 + x_01315 + x_01316 + x_01317 + x_01318 + x_01991 = 1
 r0006: x_00006 + x_00168 + x_00232 + x_00233 + x_00234 + x_00235 + x_00236 + x_00237 + x_00238 + x_00239 + x_01267 + x_01268 + x_01319 = 1
 r0007: x_00007 + x_00240 + x_00241 + x_00242 + x_00243 + x_00244 + x_00245 + x_00246 + x_00247 + x_00248 + x_00249 + x_00250 + x_00251 + x_00252 + x_00253 + x_00254 + x_00255 + x_00256 + x_00257 + x_00258 + x_00259 + x_00260 + x_00261 + x_00262 + x_01320 + x_01321 + x_01322 + x_01323 + x_01324 + x_01325 + x_01326 + x_01327 + x_01328 + x_01329 + x_01330 + x_01331 + x_01332 + x_01333 + x_01334 + x_01335 + x_01336 + x_01337 + x_01338 + x_01339 + x_01340 + x_01341 + x_01342 + x_01343 + x_01344 + x_01345 + x_01346 + x_01347 + x_01348 + x_01349 + x_01350 + x_01351 + x_01992 + x_01993 + x_01994 + x_01995 + x_01996 + x_01997 + x_01998 = 1
 r0008: x_00008 + x_00155 + x_00240 + x_00263 + x_00264 + x_00265 + x_00266 + x_00267 + x_00268 + x_00269 + x_00270 + x_00271 + x_00272 + x_00273 + x_00274 + x_01260 + x_01261 + x_01320 + x_01321 + x_01322 + x_01323 + x_01324 + x_01352 + x_01353 + x_01354 + x_01355 + x_01356 + x_01357 + x_01358 + x_01359 + x_01360 + x_01992 + x_01993 + x_01994 = 1
 r0009: x_00009 + x_00138 + x_00217 + x_00275 + x_00276 + x_00277 + x_00278 + x_00279 + x_00280 + x_00281 + x_00282 + x_00283 + x_00284 + x_00285 + x_00286 + x_00287 + x_00288 + x_00289 + x_00290 + x_00291 + x_00292 + x_00293 + x_01248 + x_01249 + x_01307 + x_01361 + x_01362 + x_01363 + x_01364 + x_01365 + x_01366 + x_01367 + x_01368 + x_01369 + x_01370 + x_01371 + x_01372 + x_01373 + x_01374 + x_01375 + x_01376 + x_01377 + x_01378 + x_01379 + x_01380 + x_01381 + x_01382 + x_01383 + x_01384 + x_01385 + x_01386 + x_01999 + x_02000 + x_02001 + x_02002 + x_02003 = 1
 r0010: x_00010 + x_00241 + x_00294 + x_00295 + x_00296 + x_00297 + x_00298 + x_00299 + x_00300 + x_00301 + x_00302 + x_00303 + x_00304 + x_00305 + x_00306 + x_00307 + x_00308 + x_01325 + x_01326 + x_01327 + x_01387 + x_01388 + x_01389 + x_01390 + x_01391 + x_01392 + x_01393 + x_01394 + x_01395 + x_01396 + x_01397 + x_01398 + x_01399 + x_01400 + x_01995 + x_01996 + x_02004 = 1
 r0011: x_00011 + x_00275 + x_00309 + x_00310 + x_00311 + x_00312 + x_00313 + x_00314 + x_00315 + x_00316 + x_00317 + x_00318 + x_00319 + x_00320 + x_00321 + x_00322 + x_00323 + x_00324 + x_00325 + x_00326 + x_00327 + x_01361 + x_01362 + x_01363 + x_01364 + x_01401 + x_01402 + x_01403 + x_01404 + x_01405 + x_01406 + x_01407 + x_01408 + x_01409 + x_01410 + x_01411 + x_01412 + x_01413 + x_01414 + x_01415 + x_01416 + x_01417 + x_01418 + x_01419 + x_01420 + x_01421 + x_01422 + x_01423 + x_01424 + x_01425 + x_01426 + x_01427 + x_01428 + x_01999 + x_02005 + x_02006 + x_02007 + x_02008 + x_02009 = 1
 r0012: x_00012 + x_00328 + x_00329 + x_00330 + x_00331 + x_00332 + x_00333 + x_00334 + x_00335 + x_00336 + x_00337 + x_00338 + x_00339 + x_00340 + x_00341 + x_00342 + x_00343 + x_00344 + x_00345 + x_00346 + x_01429 + x_01430 + x_01431 + x_01432 + x_01433 + x_01434 + x_01435 + x_01436 + x_01437 + x_01438 + x_01439 + x_01440 + x_01441 + x_01442 + x_01443 + x_01444 + x_01445 = 1
 r0013: x_00013 + x_00139 + x_00180 + x_00242 + x_00328 + x_00347 + x_00348 + x_00349 + x_00350 + x_00351 + x_00352 + x_00353 + x_00354 + x_00355 + x_00356 + x_00357 + x_00358 + x_00359 + x_00360 + x_00361 + x_01250 + x_01275 + x_01276 + x_01328 + x_01429 + x_01446 + x_01447 + x_01448 + x_01449 + x_01450 + x_01451 + x_01452 + x_01453 + x_01454 + x_01455 + x_01456 + x_01457 + x_01458 + x_01459 + x_01460 + x_01461 + x_02010 + x_02011 = 1
 r0014: x_00014 + x_00362 + x_00363 + x_00364 + x_00365 + x_00366 + x_00367 + x_00368 + x_00369 + x_00370 + x_00371 + x_00372 + x_00373 + x_00374 + x_00375 + x_00376 + x_00377 + x_00378 + x_00379 + x_00380 + x_00381 + x_00382 + x_01462 + x_01463 + x_01464 + x_01465 + x_01466 + x_01467 + x_01468 + x_01469 + x_01470 + x_01471 + x_01472 + x_01473 + x_01474 + x_01475 + x_01476 + x_01477 + x_01478 + x_01479 + x_01480 + x_01481 + x_01482 + x_01483 + x_02012 + x_02013 = 1
 r0015: x_00015 + x_00140 + x_00383 + x_00384 + x_00385 + x_00386 + x_00387 + x_00388 + x_00389 + x_00390 + x_00391 + x_00392 + x_00393 + x_01251 + x_01484 + x_01485 + x_01486 + x_01487 + x_01488 + x_02014 = 1
 r0016: x_00016 + x_00198 + x_00394 + x_00395 + x_00396 + x_00397 + x_00398 + x_00399 + x_00400 + x_00401 + x_00402 + x_00403 + x_00404 + x_00405 + x_01293 + x_01489 + x_01490 + x_01491 + x_01492 + x_01493 + x_01494 + x_01495 + x_01496 + x_01497 + x_01498 + x_01499 + x_01500 + x_01501 + x_02015 + x_02016 = 1
 r0017: x_00017 + x_00243 + x_00263 + x_00406 + x_00407 + x_00408 + x_00409 + x_00410 + x_00411 + x_00412 + x_00413 + x_00414 + x_00415 + x_00416 + x_00417 + x_00418 + x_00419 + x_00420 + x_01320 + x_01329 + x_01330 + x_01352 + x_01502 + x_01503 + x_01504 + x_01505 + x_01506 + x_01507 + x_01508 + x_01509 + x_01510 + x_01992 + x_01997 = 1
 r0018: x_00018 + x_00362 + x_00421 + x_00422 + x_00423 + x_00424 + x_00425 + x_00426 + x_00427 + x_00428 + x_00429 + x_00430 + x_00431 + x_00432 + x_00433 + x_00434 + x_00435 + x_00436 + x_00437 + x_00438 + x_00439 + x_01462 + x_01463 + x_01511 + x_01512 + x_01513 + x_01514 + x_01515 + x_01516 + x_01517 + x_01518 + x_01519 + x_01520 + x_01521 + x_01522 + x_01523 + x_01524 + x_01525 + x_01526 + x_01527 + x_01528 + x_01529 + x_01530 + x_01531 + x_01532 + x_01533 + x_01534 + x_02017 = 1
 r0019: x_00019 + x_00440 + x_00441 + x_00442 + x_00443 + x_00444 + x_00445 + x_00446 + x_00447 + x_00448 + x_00449 + x_00450 + x_00451 + x_00452 + x_00453 + x_00454 + x_00455 + x_01535 + x_01536 + x_01537 + x_01538 + x_01539 + x_01540 + x_01541 + x_01542 + x_01543 + x_01544 + x_02018 = 1
 r0020: x_00020 + x_00406 + x_00456 + x_00457 + x_00458 + x_00459 + x_00460 + x_00461 + x_00462 + x_00463 + x_00464 + x_00465 + x_01545 + x_01546 + x_01547 + x_01548 + x_01549 + x_01550 + x_02019 = 1
 r0021: x_00021 + x_00276 + x_00421 + x_00440 + x_00466 + x_00467 + x_00468 + x_00469 + x_00470 + x_00471 + x_00472 + x_00473 + x_00474 + x_01365 + x_01511 + x_01512 + x_01551 + x_01552 + x_01553 + x_01554 = 1
 r0022: x_00022 + x_00199 + x_00218 + x_00475 + x_00476 + x_00477 + x_00478 + x_00479 + x_00480 + x_00481 + x_00482 + x_00483 + x_00484 + x_00485 + x_00486 + x_01294 + x_01295 + x_01296 + x_01308 + x_01555 + x_01556 + x_01557 + x_01558 + x_01559 + x_01560 + x_01561 + x_01562 + x_01563 + x_01990 = 1
 r0023: x_00023 + x_00169 + x_00264 + x_00309 + x_00487 + x_00488 + x_00489 + x_00490 + x_00491 + x_00492 + x_00493 + x_00494 + x_00495 + x_00496 + x_00497 + x_00498 + x_00499 + x_00500 + x_00501 + x_01269 + x_01353 + x_01401 + x_01402 + x_01564 + x_01565 + x_01566 + x_01567 + x_01568 + x_01569 + x_01570 + x_01571 + x_01572 + x_01573 + x_01574 + x_01575 + x_01576 + x_01577 + x_01578 + x_01579 + x_01580 + x_01581 + x_01582 + x_01583 + x_02020 + x_02021 + x_02022 + x_02023 = 1
 r0024: x_00024 + x_00244 + x_00265 + x_00294 + x_00363 + x_00502 + x_00503 + x_00504 + x_00505 + x_00506 + x_00507 + x_00508 + x_00509 + x_00510 + x_00511 + x_01321 + x_01325 + x_01331 + x_01332 + x_01354 + x_01355 + x_01387 + x_01464 + x_01465 + x_01466 + x_01584 + x_01585 + x_01586 + x_01587 + x_01588 + x_01993 + x_01995 + x_02012 + x_02013 = 1
 r0025: x_00025 + x_00170 + x_00245 + x_00364 + x_00422 + x_00466 + x_00512 + x_00513 + x_00514 + x_00515 + x_00516 + x_00517 + x_00518 + x_00519 + x_00520 + x_00521 + x_01333 + x_01334 + x_01462 + x_01511 + x_01513 + x_01551 + x_01589 + x_01590 + x_01591 + x_01592 + x_01593 = 1
 r0026: x_00026 + x_00407 + x_00522 + x_00523 + x_00524 + x_00525 + x_00526 + x_00527 + x_00528 + x_00529 + x_00530 + x_00531 + x_00532 + x_00533 + x_00534 + x_00535 + x_00536 + x_00537 + x_00538 + x_00539 + x_00540 + x_01502 + x_01594 + x_01595 + x_01596 + x_01597 + x_01598 + x_01599 + x_01600 + x_01601 + x_01602 + x_01603 + x_01604 + x_01605 + x_01606 + x_01607 + x_01608 + x_01609 + x_01610 + x_01611 + x_01612 + x_01613 + x_01614 + x_01615 + x_01616 + x_02024 + x_02025 = 1
 r0027: x_00027 + x_00200 + x_00347 + x_00394 + x_00541 + x_00542 + x_00543 + x_00544 + x_00545 + x_00546 + x_00547 + x_00548 + x_00549 + x_00550 + x_00551 + x_00552 + x_01293 + x_01446 + x_01447 + x_01489 + x_01617 + x_01618 + x_01619 + x_01620 + x_01621 + x_01622 + x_01623 + x_01624 + x_02026 + x_02027 = 1
 r0028: x_00028 + x_00171 + x_00329 + x_00541 + x_00553 + x_00554 + x_00555 + x_00556 + x_00557 + x_00558 + x_00559 + x_00560 + x_00561 + x_00562 + x_00563 + x_00564 + x_01270 + x_01430 + x_01431 + x_01617 + x_01625 + x_01626 + x_01627 + x_01628 + x_01629 + x_01630 + x_01631 + x_01632 + x_01633 + x_02028 = 1
 r0029: x_00029 + x_00141 + x_00310 + x_00522 + x_00565 + x_00566 + x_00567 + x_00568 + x_00569 + x_00570 + x_00571 + x_00572 + x_00573 + x_00574 + x_00575 + x_00576 + x_00577 + x_01252 + x_01403 + x_01404 + x_01594 + x_01595 + x_01596 + x_01597 + x_01598 + x_01634 + x_01635 + x_01636 + x_01637 + x_01638 + x_01639 = 1
 r0030: x_00030 + x_00172 + x_00232 + x_00456 + x_00578 + x_00579 + x_00580 + x_00581 + x_00582 + x_00583 + x_00584 + x_00585 + x_00586 + x_00587 + x_00588 + x_00589 + x_01267 + x_01271 + x_01545 + x_01640 + x_01641 + x_01642 = 1
 r0031: x_00031 + x_00219 + x_00277 + x_00395 + x_00487 + x_00523 + x_00565 + x_00590 + x_00591 + x_00592 + x_00593 + x_00594 + x_00595 + x_00596 + x_00597 + x_00598 + x_00599 + x_00600 + x_00601 + x_00602 + x_01307 + x_01366 + x_01367 + x_01368 + x_01369 + x_01370 + x_01490 + x_01491 + x_01492 + x_01493 + x_01564 + x_01594 + x_01643 + x_01644 + x_01645 + x_01646 + x_01647 + x_01648 + x_01649 + x_01650 + x_01651 + x_02000 + x_02001 + x_02015 + x_02029 + x_02030 = 1
 r0032: x_00032 + x_00220 + x_00311 + x_00383 + x_00603 + x_00604 + x_00605 + x_00606 + x_00607 + x_00608 + x_00609 + x_00610 + x_00611 + x_00612 + x_00613 + x_00614 + x_01309 + x_01310 + x_01311 + x_01652 + x_01653 + x_01654 + x_01655 + x_01656 + x_01657 + x_01658 = 1
 r0033: x_00033 + x_00330 + x_00457 + x_00524 + x_00553 + x_00615 + x_00616 + x_00617 + x_00618 + x_00619 + x_00620 + x_00621 + x_00622 + x_00623 + x_01430 + x_01432 + x_01546 + x_01599 + x_01600 + x_01601 + x_01602 + x_01603 + x_01659 + x_01660 + x_01661 + x_01662 + x_01663 + x_02024 + x_02025 = 1
 r0034: x_00034 + x_00233 + x_00266 + x_00502 + x_00624 + x_00625 + x_00626 + x_00627 + x_00628 + x_00629 + x_00630 + x_00631 + x_00632 + x_00633 + x_00634 + x_01354 + x_01356 + x_01357 + x_01664 + x_01665 + x_01666 + x_01667 + x_01668 + x_01669 + x_01670 + x_01671 + x_01672 + x_01673 + x_01674 + x_02031 + x_02032 = 1
 r0035: x_00035 + x_00181 + x_00201 + x_00234 + x_00475 + x_00635 + x_00636 + x_00637 + x_00638 + x_00639 + x_00640 + x_00641 + x_00642 + x_00643 + x_00644 + x_00645 + x_01294 + x_01297 + x_01298 + x_01555 + x_01556 + x_01675 + x_01676 + x_01677 + x_01678 + x_01679 + x_01680 + x_01681 + x_01682 + x_01683 + x_01990 = 1
 r0036: x_00036 + x_00278 + x_00396 + x_00590 + x_00646 + x_00647 + x_00648 + x_00649 + x_00650 + x_00651 + x_00652 + x_00653 + x_00654 + x_00655 + x_00656 + x_00657 + x_00658 + x_01366 + x_01371 + x_01372 + x_01373 + x_01374 + x_01490 + x_01494 + x_01495 + x_01684 + x_01685 + x_01686 + x_01687 + x_01688 + x_01689 + x_01690 + x_01691 + x_01692 + x_02002 + x_02033 = 1
 r0037: x_00037 + x_00246 + x_00267 + x_00279 + x_00384 + x_00397 + x_00476 + x_00591 + x_00624 + x_00659 + x_00660 + x_00661 + x_00662 + x_00663 + x_00664 + x_00665 + x_00666 + x_00667 + x_00668 + x_00669 + x_00670 + x_00671 + x_00672 + x_01322 + x_01335 + x_01356 + x_01358 + x_01359 + x_01367 + x_01375 + x_01491 + x_01496 + x_01497 + x_01498 + x_01557 + x_01643 + x_01644 + x_01645 + x_01646 + x_01664 + x_01665 + x_01666 + x_01693 + x_01694 + x_01695 + x_01696 + x_01697 + x_01698 + x_01699 + x_01700 + x_01701 + x_01702 + x_01994 + x_02000 + x_02015 + x_02016 + x_02029 + x_02030 = 1
 r0038: x_00038 + x_00142 + x_00202 + x_00280 + x_00312 + x_00673 + x_00674 + x_00675 + x_00676 + x_00677 + x_00678 + x_00679 + x_00680 + x_00681 + x_00682 + x_00683 + x_00684 + x_01248 + x_01253 + x_01299 + x_01361 + x_01703 + x_01704 + x_01705 + x_01706 + x_01707 + x_01708 + x_01709 = 1
 r0039: x_00039 + x_00182 + x_00313 + x_00423 + x_00441 + x_00554 + x_00592 + x_00685 + x_00686 + x_00687 + x_00688 + x_00689 + x_00690 + x_00691 + x_00692 + x_00693 + x_00694 + x_00695 + x_00696 + x_00697 + x_00698 + x_01277 + x_01405 + x_01406 + x_01407 + x_01514 + x_01515 + x_01535 + x_01625 + x_01626 + x_01647 + x_01710 + x_01711 + x_01712 + x_01713 + x_01714 + x_01715 + x_01716 + x_01717 + x_01718 + x_01719 + x_01720 + x_02005 + x_02034 = 1
 r0040: x_00040 + x_00221 + x_00458 + x_00625 + x_00673 + x_00699 + x_00700 + x_00701 + x_00702 + x_00703 + x_00704 + x_00705 + x_00706 + x_00707 + x_00708 + x_00709 + x_00710 + x_00711 + x_00712 + x_00713 + x_00714 + x_00715 + x_00716 + x_00717 + x_00718 + x_00719 + x_00720 + x_01312 + x_01667 + x_01668 + x_01669 + x_01670 + x_01671 + x_01703 + x_01721 + x_01722 + x_01723 + x_01724 + x_01725 + x_01726 + x_01727 + x_01728 + x_01729 + x_01730 + x_01731 + x_01732 + x_01733 + x_01734 + x_01735 + x_01736 + x_01737 + x_01738 + x_01739 + x_01740 + x_01741 + x_01742 + x_01743 + x_02031 + x_02032 + x_02035 = 1
 r0041: x_00041 + x_00235 + x_00314 + x_00365 + x_00503 + x_00525 + x_00542 + x_00615 + x_00721 + x_00722 + x_00723 + x_00724 + x_00725 + x_00726 + x_00727 + x_00728 + x_00729 + x_00730 + x_00731 + x_00732 + x_01408 + x_01464 + x_01467 + x_01468 + x_01469 + x_01470 + x_01584 + x_01599 + x_01604 + x_01618 + x_01744 + x_01745 + x_01746 + x_01747 + x_01748 + x_01749 + x_02012 + x_02036 = 1
 r0042: x_00042 + x_00222 + x_00442 + x_00504 + x_00512 + x_00603 + x_00616 + x_00733 + x_00734 + x_00735 + x_00736 + x_00737 + x_00738 + x_00739 + x_00740 + x_01309 + x_01585 + x_01589 + x_01652 + x_01750 + x_01751 + x_01752 + x_01753 + x_01754 + x_01755 + x_02037 = 1
 r0043: x_00043 + x_00223 + x_00236 + x_00247 + x_00685 + x_00741 + x_00742 + x_00743 + x_00744 + x_00745 + x_00746 + x_00747 + x_00748 + x_00749 + x_00750 + x_01313 + x_01314 + x_01336 + x_01337 + x_01338 + x_01710 + x_01711 + x_01756 + x_01757 + x_01758 + x_01759 + x_01760 + x_01761 + x_01762 + x_01991 + x_02038 = 1
 r0044: x_00044 + x_00295 + x_00408 + x_00699 + x_00721 + x_00751 + x_00752 + x_00753 + x_00754 + x_00755 + x_00756 + x_00757 + x_00758 + x_00759 + x_00760 + x_01388 + x_01389 + x_01503 + x_01721 + x_01722 + x_01723 + x_01724 + x_01744 + x_01763 + x_01764 + x_01765 + x_01766 + x_01767 + x_02004 + x_02035 + x_02039 = 1
 r0045: x_00045 + x_00237 + x_00281 + x_00296 + x_00366 + x_00488 + x_00566 + x_00761 + x_00762 + x_00763 + x_00764 + x_00765 + x_00766 + x_00767 + x_00768 + x_00769 + x_00770 + x_00771 + x_00772 + x_00773 + x_00774 + x_01319 + x_01376 + x_01390 + x_01391 + x_01392 + x_01471 + x_01565 + x_01566 + x_01634 + x_01768 + x_01769 + x_01770 + x_01771 + x_01772 + x_01773 + x_01774 + x_01775 + x_01776 + x_02020 = 1
 r0046: x_00046 + x_00143 + x_00173 + x_00183 + x_00203 + x_00315 + x_00567 + x_00617 + x_00626 + x_00659 + x_00700 + x_00775 + x_00776 + x_00777 + x_00778 + x_00779 + x_00780 + x_00781 + x_00782 + x_01252 + x_01254 + x_01255 + x_01272 + x_01278 + x_01300 + x_01301 + x_01403 + x_01409 + x_01410 + x_01635 + x_01659 + x_01660 + x_01664 + x_01667 + x_01672 + x_01725 + x_01777 + x_01778 + x_01779 + x_01780 + x_02031 = 1
 r0047: x_00047 + x_00348 + x_00367 + x_00459 + x_00477 + x_00526 + x_00543 + x_00568 + x_00783 + x_00784 + x_00785 + x_00786 + x_00787 + x_00788 + x_00789 + x_00790 + x_00791 + x_00792 + x_00793 + x_01446 + x_01448 + x_01449 + x_01450 + x_01451 + x_01472 + x_01473 + x_01547 + x_01548 + x_01558 + x_01559 + x_01595 + x_01605 + x_01606 + x_01636 + x_01637 + x_01781 + x_01782 + x_01783 + x_01784 + x_02019 = 1
 r0048: x_00048 + x_00297 + x_00316 + x_00660 + x_00794 + x_00795 + x_00796 + x_00797 + x_00798 + x_00799 + x_00800 + x_00801 + x_00802 + x_00803 + x_00804 + x_01393 + x_01394 + x_01411 + x_01412 + x_01413 + x_01693 + x_01785 + x_01786 + x_01787 + x_01788 + x_01789 + x_01790 + x_01791 + x_01792 + x_02006 + x_02040 = 1
 r0049: x_00049 + x_00248 + x_00467 + x_00555 + x_00805 + x_00806 + x_00807 + x_00808 + x_00809 + x_00810 + x_00811 + x_00812 + x_00813 + x_00814 + x_00815 + x_00816 + x_00817 + x_01339 + x_01340 + x_01341 + x_01627 + x_01628 + x_01629 + x_01793 + x_01794 + x_01795 + x_01796 + x_01797 + x_01798 + x_01799 + x_01800 + x_01801 + x_01802 + x_01803 + x_01804 + x_01998 = 1
 r0050: x_00050 + x_00204 + x_00443 + x_00604 + x_00818 + x_00819 + x_00820 + x_00821 + x_00822 + x_00823 + x_00824 + x_01536 + x_01537 + x_01538 + x_01805 + x_01806 + x_01807 + x_01808 + x_02018 = 1
 r0051: x_00051 + x_00184 + x_00331 + x_00468 + x_00593 + x_00701 + x_00761 + x_00825 + x_00826 + x_00827 + x_00828 + x_00829 + x_00830 + x_00831 + x_00832 + x_00833 + x_00834 + x_00835 + x_00836 + x_00837 + x_00838 + x_00839 + x_01279 + x_01280 + x_01433 + x_01434 + x_01552 + x_01553 + x_01726 + x_01727 + x_01768 + x_01809 + x_01810 + x_01811 + x_01812 + x_01813 + x_01814 + x_01815 + x_01816 + x_01817 + x_01818 + x_01819 + x_01820 + x_01821 + x_01822 + x_01823 + x_02041 + x_02042 + x_02043 = 1
 r0052: x_00052 + x_00409 + x_00556 + x_00578 + x_00605 + x_00674 + x_00805 + x_00825 + x_00840 + x_00841 + x_00842 + x_00843 + x_00844 + x_00845 + x_00846 + x_01504 + x_01505 + x_01506 + x_01627 + x_01630 + x_01631 + x_01793 + x_01809 + x_01824 + x_02028 = 1
 r0053: x_00053 + x_00205 + x_00282 + x_00317 + x_00505 + x_00646 + x_00686 + x_00741 + x_00847 + x_00848 + x_00849 + x_00850 + x_00851 + x_00852 + x_00853 + x_00854 + x_00855 + x_00856 + x_00857 + x_01302 + x_01303 + x_01362 + x_01371 + x_01377 + x_01378 + x_01379 + x_01405 + x_01414 + x_01415 + x_01416 + x_01586 + x_01684 + x_01685 + x_01686 + x_01687 + x_01710 + x_01756 + x_01757 + x_01758 + x_01825 + x_01826 + x_01827 + x_01828 + x_01829 + x_01830 + x_01831 + x_01832 + x_01833 + x_01999 + x_02002 + x_02003 + x_02007 + x_02033 + x_02038 + x_02044 = 1
 r0054: x_00054 + x_00424 + x_00687 + x_00762 + x_00794 + x_00858 + x_00859 + x_00860 + x_00861 + x_00862 + x_00863 + x_00864 + x_00865 + x_00866 + x_00867 + x_00868 + x_00869 + x_01514 + x_01516 + x_01517 + x_01518 + x_01712 + x_01785 + x_01786 + x_01834 + x_01835 + x_01836 + x_01837 + x_01838 + x_01839 + x_01840 + x_02040 = 1
 r0055: x_00055 + x_00283 + x_00298 + x_00410 + x_00763 + x_00847 + x_00870 + x_00871 + x_00872 + x_00873 + x_00874 + x_00875 + x_00876 + x_01376 + x_01377 + x_01380 + x_01390 + x_01825 + x_01826 + x_01841 + x_01842 + x_01843 + x_02003 = 1
 r0056: x_00056 + x_00185 + x_00249 + x_00299 + x_00506 + x_00606 + x_00733 + x_00742 + x_00783 + x_00877 + x_00878 + x_00879 + x_00880 + x_00881 + x_00882 + x_00883 + x_00884 + x_01281 + x_01282 + x_01283 + x_01326 + x_01331 + x_01336 + x_01342 + x_01343 + x_01387 + x_01395 + x_01585 + x_01652 + x_01653 + x_01654 + x_01750 + x_01751 + x_01759 + x_01760 + x_01781 + x_01844 + x_01988 + x_01995 + x_01996 + x_02037 = 1
 r0057: x_00057 + x_00156 + x_00411 + x_00478 + x_00527 + x_00618 + x_00635 + x_00764 + x_00775 + x_00826 + x_00885 + x_00886 + x_00887 + x_00888 + x_00889 + x_00890 + x_00891 + x_00892 + x_00893 + x_00894 + x_00895 + x_01262 + x_01502 + x_01555 + x_01560 + x_01600 + x_01607 + x_01608 + x_01609 + x_01659 + x_01661 + x_01675 + x_01768 + x_01769 + x_01777 + x_01810 + x_01811 + x_01812 + x_01813 + x_01814 + x_01845 + x_01846 + x_01847 + x_01848 + x_01849 + x_01850 + x_01851 + x_01852 + x_01853 + x_02024 + x_02041 + x_02042 + x_02043 + x_02045 = 1
 r0058: x_00058 + x_00186 + x_00268 + x_00332 + x_00479 + x_00579 + x_00784 + x_00896 + x_00897 + x_00898 + x_00899 + x_00900 + x_00901 + x_00902 + x_01284 + x_01285 + x_01435 + x_01558 + x_01640 + x_01782 + x_01854 + x_01855 + x_01856 + x_01857 + x_01858 + x_01989 = 1
 r0059: x_00059 + x_00187 + x_00489 + x_00513 + x_00544 + x_00675 + x_00722 + x_00743 + x_00806 + x_00848 + x_00858 + x_00896 + x_00903 + x_00904 + x_00905 + x_00906 + x_00907 + x_00908 + x_01284 + x_01286 + x_01567 + x_01568 + x_01590 + x_01618 + x_01704 + x_01756 + x_01761 + x_01794 + x_01827 + x_01834 + x_01854 + x_01855 + x_01859 + x_01860 + x_01989 + x_02038 = 1
 r0060: x_00060 + x_00188 + x_00349 + x_00385 + x_00444 + x_00490 + x_00514 + x_00545 + x_00580 + x_00676 + x_00702 + x_00807 + x_00849 + x_00909 + x_00910 + x_00911 + x_00912 + x_01275 + x_01447 + x_01452 + x_01569 + x_01591 + x_01703 + x_01705 + x_01861 + x_01862 + x_01863 + x_02046 = 1
 r0061: x_00061 + x_00250 + x_00445 + x_00515 + x_00744 + x_00913 + x_00914 + x_00915 + x_00916 + x_00917 + x_00918 + x_00919 + x_00920 + x_00921 + x_00922 + x_00923 + x_01333 + x_01337 + x_01344 + x_01539 + x_01592 + x_01864 + x_01865 + x_01866 + x_01867 + x_01868 + x_01869 = 1
 r0062: x_00062 + x_00318 + x_00350 + x_00386 + x_00446 + x_00460 + x_00723 + x_00850 + x_00924 + x_00925 + x_00926 + x_00927 + x_00928 + x_00929 + x_00930 + x_00931 + x_00932 + x_00933 + x_00934 + x_00935 + x_00936 + x_00937 + x_00938 + x_01408 + x_01414 + x_01417 + x_01418 + x_01419 + x_01453 + x_01454 + x_01455 + x_01484 + x_01485 + x_01540 + x_01541 + x_01542 + x_01549 + x_01828 + x_01829 + x_01870 + x_01871 + x_01872 + x_01873 + x_01874 + x_01875 + x_01876 + x_01877 + x_01878 + x_01879 + x_01880 + x_02007 + x_02010 + x_02014 + x_02044 + x_02047 = 1
 r0063: x_00063 + x_00157 + x_00398 + x_00636 + x_00661 + x_00677 + x_00827 + x_00939 + x_00940 + x_00941 + x_00942 + x_00943 + x_00944 + x_00945 + x_00946 + x_00947 + x_00948 + x_01263 + x_01496 + x_01676 + x_01694 + x_01881 + x_01882 + x_01883 + x_01884 + x_01885 + x_01886 + x_01887 + x_01888 + x_01889 + x_01890 + x_02048 + x_02049 = 1
 r0064: x_00064 + x_00368 + x_00594 + x_00765 + x_00808 + x_00939 + x_00949 + x_00950 + x_00951 + x_00952 + x_00953 + x_00954 + x_00955 + x_01471 + x_01474 + x_01770 + x_01795 + x_01796 + x_01881 + x_01882 + x_01891 + x_01892 + x_01893 = 1
 r0065: x_00065 + x_00158 + x_00269 + x_00333 + x_00751 + x_00885 + x_00956 + x_00957 + x_00958 + x_00959 + x_00960 + x_01260 + x_01262 + x_01264 + x_01436 + x_01763 + x_01894 + x_01895 = 1
 r0066: x_00066 + x_00224 + x_00319 + x_00399 + x_00425 + x_00480 + x_00491 + x_00557 + x_00870 + x_00913 + x_00961 + x_00962 + x_00963 + x_00964 + x_00965 + x_00966 + x_00967 + x_00968 + x_00969 + x_01308 + x_01401 + x_01420 + x_01421 + x_01519 + x_01570 + x_01571 + x_01572 + x_01632 + x_01864 + x_01896 + x_01897 + x_01898 + x_01899 + x_01900 + x_01901 + x_01902 + x_01903 + x_02008 + x_02021 = 1
 r0067: x_00067 + x_00206 + x_00369 + x_00507 + x_00619 + x_00647 + x_00678 + x_00745 + x_00776 + x_00851 + x_00970 + x_00971 + x_00972 + x_00973 + x_00974 + x_00975 + x_00976 + x_00977 + x_00978 + x_01299 + x_01300 + x_01302 + x_01465 + x_01475 + x_01586 + x_01587 + x_01588 + x_01660 + x_01662 + x_01684 + x_01688 + x_01689 + x_01690 + x_01706 + x_01757 + x_01778 + x_01830 + x_01831 + x_01904 + x_01905 + x_02013 + x_02033 = 1
 r0068: x_00068 + x_00174 + x_00351 + x_00400 + x_00558 + x_00581 + x_00595 + x_00607 + x_00627 + x_00662 + x_00679 + x_00766 + x_00785 + x_00809 + x_00903 + x_00979 + x_00980 + x_00981 + x_00982 + x_00983 + x_00984 + x_01270 + x_01271 + x_01273 + x_01274 + x_01448 + x_01492 + x_01497 + x_01499 + x_01628 + x_01643 + x_01648 + x_01649 + x_01650 + x_01655 + x_01665 + x_01695 + x_01696 + x_01697 + x_01704 + x_01707 + x_01771 + x_01794 + x_01797 + x_01798 + x_01859 + x_01860 + x_02015 + x_02016 + x_02029 + x_02030 = 1
 r0069: x_00069 + x_00144 + x_00251 + x_00387 + x_00582 + x_00637 + x_00688 + x_00734 + x_00956 + x_00985 + x_00986 + x_00987 + x_00988 + x_00989 + x_00990 + x_01251 + x_01345 + x_01486 + x_01487 + x_01677 + x_01713 + x_01752 + x_01894 + x_01906 + x_01907 = 1
 r0070: x_00070 + x_00225 + x_00252 + x_00270 + x_00508 + x_00828 + x_00991 + x_00992 + x_00993 + x_00994 + x_00995 + x_00996 + x_00997 + x_00998 + x_00999 + x_01000 + x_01001 + x_01315 + x_01323 + x_01332 + x_01346 + x_01347 + x_01355 + x_01360 + x_01815 + x_01908 + x_01909 + x_01910 + x_01911 + x_01993 = 1
 r0071: x_00071 + x_00300 + x_00334 + x_00412 + x_00447 + x_00569 + x_00777 + x_00840 + x_00852 + x_00924 + x_00970 + x_00985 + x_01002 + x_01003 + x_01004 + x_01005 + x_01006 + x_01007 + x_01008 + x_01009 + x_01396 + x_01437 + x_01504 + x_01507 + x_01540 + x_01635 + x_01778 + x_01779 + x_01828 + x_01830 + x_01832 + x_01870 + x_01871 + x_01872 + x_01912 + x_01913 + x_01914 + x_01915 + x_01916 + x_02044 + x_02047 = 1
 r0072: x_00072 + x_00159 + x_00284 + x_00426 + x_00448 + x_00596 + x_00638 + x_00818 + x_00877 + x_00957 + x_01010 + x_01011 + x_01012 + x_01013 + x_01014 + x_01264 + x_01368 + x_01381 + x_01382 + x_01536 + x_01543 + x_01651 + x_01678 + x_01679 + x_01805 + x_01917 + x_01918 + x_01919 + x_02001 + x_02018 = 1
 r0073: x_00073 + x_00145 + x_00301 + x_00413 + x_00492 + x_00703 + x_00767 + x_00786 + x_00841 + x_00961 + x_00971 + x_01015 + x_01016 + x_01017 + x_01018 + x_01019 + x_01020 + x_01021 + x_01022 + x_01391 + x_01397 + x_01505 + x_01565 + x_01570 + x_01573 + x_01574 + x_01728 + x_01772 + x_01896 + x_01897 + x_01898 + x_01899 + x_01904 + x_01920 + x_01921 + x_01922 + x_02020 + x_02021 = 1
 r0074: x_00074 + x_00207 + x_00253 + x_00608 + x_00704 + x_00752 + x_00768 + x_00886 + x_00991 + x_01023 + x_01024 + x_01025 + x_01026 + x_01027 + x_01028 + x_01029 + x_01304 + x_01346 + x_01348 + x_01656 + x_01721 + x_01729 + x_01730 + x_01769 + x_01773 + x_01845 + x_01846 + x_01908 + x_01909 + x_01923 + x_01924 + x_02045 = 1
 r0075: x_00075 + x_00175 + x_00449 + x_00810 + x_00962 + x_00986 + x_01015 + x_01023 + x_01030 + x_01031 + x_01032 + x_01033 + x_01034 + x_01035 + x_01036 + x_01544 + x_01799 + x_01896 + x_01900 + x_01901 + x_01906 + x_01920 + x_01925 + x_01926 + x_01927 + x_01928 = 1
 r0076: x_00076 + x_00146 + x_00254 + x_00285 + x_00320 + x_00335 + x_00648 + x_00705 + x_00746 + x_00795 + x_00853 + x_00871 + x_00897 + x_00904 + x_00979 + x_01010 + x_01037 + x_01038 + x_01039 + x_01249 + x_01338 + x_01363 + x_01372 + x_01378 + x_01380 + x_01381 + x_01383 + x_01411 + x_01415 + x_01422 + x_01435 + x_01438 + x_01685 + x_01731 + x_01732 + x_01758 + x_01761 + x_01787 + x_01788 + x_01825 + x_01827 + x_01841 + x_01854 + x_01859 + x_01917 + x_01999 + x_02002 + x_02003 + x_02006 + x_02038 = 1
 r0077: x_00077 + x_00189 + x_00559 + x_00597 + x_00628 + x_00663 + x_00706 + x_00735 + x_00878 + x_01040 + x_01041 + x_01042 + x_01043 + x_01281 + x_01287 + x_01644 + x_01666 + x_01668 + x_01673 + x_01674 + x_01733 + x_01750 + x_01753 + x_01844 + x_01988 + x_02032 + x_02037 = 1
 r0078: x_00078 + x_00286 + x_00528 + x_00583 + x_00829 + x_00887 + x_01002 + x_01016 + x_01024 + x_01044 + x_01045 + x_01046 + x_01047 + x_01048 + x_01049 + x_01384 + x_01607 + x_01641 + x_01810 + x_01816 + x_01817 + x_01818 + x_01845 + x_01847 + x_01848 + x_01912 + x_01923 + x_01929 + x_01930 + x_02041 + x_02042 + x_02045 = 1
 r0079: x_00079 + x_00255 + x_00516 + x_00546 + x_00560 + x_00796 + x_00859 + x_00925 + x_01003 + x_01050 + x_01051 + x_01052 + x_01053 + x_01054 + x_01055 + x_01334 + x_01349 + x_01617 + x_01785 + x_01789 + x_01835 + x_01836 + x_01870 + x_01873 + x_01913 + x_01931 + x_01932 + x_02040 + x_02047 = 1
 r0080: x_00080 + x_00176 + x_00336 + x_00414 + x_00469 + x_00629 + x_00860 + x_01025 + x_01056 + x_01057 + x_01058 + x_01059 + x_01060 + x_01061 + x_01062 + x_01439 + x_01508 + x_01554 + x_01837 + x_01838 + x_01839 + x_01933 + x_01934 + x_01935 + x_01936 + x_02050 = 1
 r0081: x_00081 + x_00208 + x_00226 + x_00639 + x_00747 + x_00769 + x_00879 + x_01044 + x_01050 + x_01063 + x_01064 + x_01065 + x_01066 + x_01067 + x_01068 + x_01069 + x_01070 + x_01071 + x_01297 + x_01313 + x_01316 + x_01317 + x_01680 + x_01681 + x_01759 + x_01762 + x_01774 + x_01931 + x_01937 + x_01938 + x_01939 + x_01940 + x_01941 + x_01991 = 1
 r0082: x_00082 + x_00302 + x_00337 + x_00570 + x_00584 + x_00630 + x_00707 + x_00787 + x_00797 + x_00914 + x_01011 + x_01037 + x_01072 + x_01073 + x_01074 + x_01075 + x_01076 + x_01393 + x_01438 + x_01440 + x_01441 + x_01636 + x_01642 + x_01669 + x_01731 + x_01734 + x_01787 + x_01790 + x_01917 + x_01918 + x_01919 + x_01942 + x_01943 = 1
 r0083: x_00083 + x_00352 + x_00517 + x_00640 + x_00664 + x_00724 + x_00830 + x_00909 + x_00915 + x_01017 + x_01056 + x_01077 + x_01078 + x_01079 + x_01080 + x_01081 + x_01082 + x_01083 + x_01452 + x_01591 + x_01592 + x_01682 + x_01698 + x_01819 + x_01865 + x_01866 + x_01867 + x_01921 + x_01922 + x_01933 + x_01934 + x_01944 + x_02050 = 1
 r0084: x_00084 + x_00160 + x_00370 + x_00598 + x_00609 + x_00680 + x_00725 + x_00748 + x_00811 + x_00880 + x_00980 + x_01045 + x_01084 + x_01085 + x_01086 + x_01087 + x_01088 + x_01089 + x_01467 + x_01476 + x_01477 + x_01478 + x_01479 + x_01480 + x_01648 + x_01653 + x_01655 + x_01657 + x_01707 + x_01708 + x_01760 + x_01797 + x_01800 + x_01801 + x_01929 = 1
 r0085: x_00085 + x_00147 + x_00161 + x_00209 + x_00353 + x_00415 + x_00427 + x_00481 + x_00585 + x_00665 + x_00708 + x_00753 + x_00788 + x_00831 + x_00861 + x_01051 + x_01057 + x_01090 + x_01091 + x_01092 + x_01093 + x_01094 + x_01250 + x_01257 + x_01265 + x_01295 + x_01305 + x_01449 + x_01503 + x_01508 + x_01509 + x_01516 + x_01520 + x_01557 + x_01559 + x_01561 + x_01699 + x_01700 + x_01722 + x_01726 + x_01735 + x_01736 + x_01764 + x_01765 + x_01820 + x_01835 + x_01837 + x_01932 + x_01945 + x_01987 + x_02035 + x_02039 = 1
 r0086: x_00086 + x_00338 + x_00354 + x_00401 + x_00416 + x_00571 + x_00689 + x_00709 + x_01095 + x_01096 + x_01097 + x_01098 + x_01099 + x_01100 + x_01101 + x_01102 + x_01429 + x_01442 + x_01443 + x_01456 + x_01457 + x_01500 + x_01501 + x_01638 + x_01714 + x_01715 + x_01716 + x_01737 + x_01946 + x_01947 + x_01948 + x_01949 + x_01950 + x_01951 + x_01952 + x_02011 + x_02034 = 1
 r0087: x_00087 + x_00256 + x_00339 + x_00547 + x_00586 + x_00610 + x_00770 + x_00972 + x_01046 + x_01103 + x_01104 + x_01105 + x_01106 + x_01619 + x_01620 + x_01621 + x_01641 + x_01658 + x_01775 + x_01930 + x_01953 + x_02026 = 1
 r0088: x_00088 + x_00321 + x_00428 + x_00493 + x_00518 + x_00529 + x_00572 + x_00710 + x_00736 + x_00754 + x_00798 + x_00872 + x_00987 + x_01038 + x_01063 + x_01095 + x_01107 + x_01108 + x_01109 + x_01110 + x_01111 + x_01112 + x_01113 + x_01114 + x_01115 + x_01116 + x_01117 + x_01402 + x_01404 + x_01412 + x_01422 + x_01423 + x_01424 + x_01513 + x_01521 + x_01522 + x_01523 + x_01524 + x_01575 + x_01576 + x_01577 + x_01578 + x_01589 + x_01593 + x_01596 + x_01610 + x_01611 + x_01638 + x_01723 + x_01732 + x_01737 + x_01738 + x_01752 + x_01766 + x_01788 + x_01791 + x_01841 + x_01937 + x_01946 + x_01947 + x_01954 + x_01955 + x_01956 + x_01957 + x_01958 + x_01959 + x_01960 + x_01961 + x_02006 + x_02009 + x_02022 = 1
 r0089: x_00089 + x_00148 + x_00340 + x_00429 + x_00450 + x_00509 + x_00530 + x_00620 + x_00819 + x_00926 + x_00949 + x_00973 + x_01058 + x_01072 + x_01107 + x_01118 + x_01119 + x_01120 + x_01121 + x_01122 + x_01123 + x_01432 + x_01439 + x_01440 + x_01521 + x_01537 + x_01541 + x_01587 + x_01601 + x_01610 + x_01612 + x_01613 + x_01662 + x_01663 + x_01874 + x_01875 + x_01891 + x_01892 + x_01935 + x_01942 + x_01954 + x_01962 + x_02025 = 1
 r0090: x_00090 + x_00190 + x_00210 + x_00287 + x_00371 + x_00599 + x_00621 + x_00755 + x_00898 + x_00905 + x_00927 + x_00992 + x_01004 + x_01030 + x_01052 + x_01124 + x_01125 + x_01126 + x_01127 + x_01128 + x_01129 + x_01130 + x_01285 + x_01286 + x_01288 + x_01369 + x_01385 + x_01481 + x_01855 + x_01856 + x_01871 + x_01873 + x_01913 + x_01914 + x_01915 + x_01925 + x_01926 + x_01963 + x_01964 + x_01989 + x_02047 = 1
 r0091: x_00091 + x_00372 + x_00531 + x_00789 + x_00862 + x_01040 + x_01059 + x_01077 + x_01084 + x_01131 + x_01132 + x_01133 + x_01134 + x_01472 + x_01476 + x_01482 + x_01605 + x_01614 + x_01838 + x_01933 + x_01936 + x_01944 + x_01965 + x_02050 = 1
 r0092: x_00092 + x_00257 + x_00271 + x_00417 + x_00649 + x_00666 + x_00910 + x_00974 + x_01090 + x_01108 + x_01135 + x_01136 + x_01137 + x_01138 + x_01139 + x_01324 + x_01329 + x_01335 + x_01350 + x_01352 + x_01358 + x_01509 + x_01510 + x_01688 + x_01699 + x_01701 + x_01861 + x_01862 + x_01955 + x_01966 + x_01967 + x_01992 + x_01994 + x_01997 + x_02046 = 1
 r0093: x_00093 + x_00191 + x_00258 + x_00303 + x_00322 + x_00402 + x_00482 + x_00561 + x_00600 + x_00631 + x_00799 + x_00842 + x_00881 + x_01140 + x_01141 + x_01142 + x_01143 + x_01144 + x_01282 + x_01289 + x_01327 + x_01342 + x_01394 + x_01395 + x_01398 + x_01413 + x_01425 + x_01493 + x_01562 + x_01630 + x_01633 + x_01824 + x_01968 + x_01996 + x_02028 = 1
 r0094: x_00094 + x_00211 + x_00430 + x_00483 + x_00641 + x_00993 + x_01140 + x_01145 + x_01146 + x_01147 + x_01148 + x_01149 + x_01296 + x_01298 + x_01525 + x_01526 + x_01527 + x_01556 + x_01562 + x_01990 = 1
 r0095: x_00095 + x_00149 + x_00227 + x_00548 + x_00749 + x_00940 + x_01064 + x_01124 + x_01131 + x_01150 + x_01151 + x_01152 + x_01153 + x_01154 + x_01155 + x_01156 + x_01314 + x_01316 + x_01622 + x_01623 + x_01762 + x_01883 + x_01884 + x_01885 + x_01886 + x_01969 + x_01970 + x_01971 + x_01972 + x_01991 + x_02027 + x_02048 + x_02049 = 1
 r0096: x_00096 + x_00162 + x_00355 + x_00403 + x_00461 + x_00650 + x_00690 + x_00750 + x_00756 + x_00790 + x_00863 + x_00899 + x_01005 + x_01096 + x_01157 + x_01158 + x_01159 + x_01450 + x_01456 + x_01458 + x_01494 + x_01500 + x_01547 + x_01550 + x_01691 + x_01711 + x_01712 + x_01714 + x_01782 + x_01783 + x_01840 + x_01857 + x_01948 + x_01973 + x_02011 + x_02019 = 1
 r0097: x_00097 + x_00259 + x_00373 + x_00388 + x_00418 + x_00451 + x_00800 + x_00812 + x_00843 + x_00950 + x_00988 + x_01031 + x_01065 + x_01085 + x_01125 + x_01135 + x_01160 + x_01161 + x_01162 + x_01330 + x_01339 + x_01345 + x_01350 + x_01474 + x_01477 + x_01481 + x_01486 + x_01506 + x_01510 + x_01544 + x_01792 + x_01793 + x_01795 + x_01799 + x_01800 + x_01802 + x_01906 + x_01907 + x_01925 + x_01938 + x_01939 + x_01963 + x_01997 = 1
 r0098: x_00098 + x_00192 + x_00238 + x_00288 + x_00356 + x_00419 + x_00431 + x_00791 + x_00928 + x_00958 + x_00975 + x_01066 + x_01141 + x_01163 + x_01164 + x_01165 + x_01166 + x_01167 + x_01276 + x_01289 + x_01451 + x_01453 + x_01459 + x_01528 + x_01529 + x_01784 + x_01895 + x_01905 + x_01940 + x_01968 + x_01974 + x_02017 = 1
 r0099: x_00099 + x_00260 + x_00452 + x_00562 + x_00573 + x_00611 + x_00792 + x_00813 + x_00832 + x_00873 + x_00882 + x_00888 + x_01060 + x_01126 + x_01163 + x_01168 + x_01169 + x_01170 + x_01171 + x_01172 + x_01340 + x_01343 + x_01351 + x_01629 + x_01637 + x_01654 + x_01781 + x_01784 + x_01803 + x_01811 + x_01821 + x_01822 + x_01842 + x_01849 + x_01850 + x_01998 + x_02043 = 1
 r0100: x_00100 + x_00462 + x_00470 + x_00519 + x_00532 + x_00549 + x_00587 + x_00642 + x_00801 + x_00874 + x_00889 + x_00941 + x_01012 + x_01067 + x_01097 + x_01127 + x_01160 + x_01173 + x_01174 + x_01175 + x_01545 + x_01551 + x_01608 + x_01675 + x_01676 + x_01678 + x_01680 + x_01792 + x_01851 + x_01887 + x_01938 + x_01949 + x_01963 + x_01964 = 1
 r0101: x_00101 + x_00711 + x_00737 + x_00864 + x_00929 + x_00942 + x_00951 + x_00963 + x_01103 + x_01150 + x_01173 + x_01176 + x_01177 + x_01754 + x_01876 + x_01881 + x_01883 + x_01887 + x_01888 = 1
 r0102: x_00102 + x_00193 + x_00289 + x_00432 + x_00651 + x_00738 + x_00833 + x_00865 + x_00883 + x_00890 + x_01006 + x_01026 + x_01041 + x_01047 + x_01128 + x_01174 + x_01178 + x_01179 + x_01180 + x_01181 + x_01279 + x_01283 + x_01287 + x_01288 + x_01290 + x_01291 + x_01373 + x_01384 + x_01385 + x_01517 + x_01530 + x_01692 + x_01751 + x_01753 + x_01812 + x_01816 + x_01844 + x_01846 + x_01847 + x_01851 + x_01912 + x_01914 + x_01916 + x_01923 + x_01924 + x_01964 + x_01988 + x_02037 + x_02041 + x_02045 = 1
 r0103: x_00103 + x_00228 + x_00357 + x_00433 + x_00471 + x_00643 + x_00726 + x_00866 + x_00900 + x_00994 + x_01061 + x_01068 + x_01098 + x_01136 + x_01157 + x_01164 + x_01182 + x_01183 + x_01184 + x_01185 + x_01186 + x_01187 + x_01188 + x_01315 + x_01317 + x_01318 + x_01457 + x_01458 + x_01459 + x_01460 + x_01512 + x_01518 + x_01528 + x_01531 + x_01532 + x_01533 + x_01554 + x_01681 + x_01745 + x_01746 + x_01747 + x_01839 + x_01840 + x_01857 + x_01858 + x_01940 + x_01941 + x_01948 + x_01950 + x_01966 + x_01973 + x_01974 + x_01975 + x_01976 + x_02011 + x_02017 + x_02036 = 1
 r0104: x_00104 + x_00177 + x_00290 + x_00374 + x_00494 + x_00601 + x_00667 + x_00727 + x_00802 + x_00854 + x_00867 + x_00943 + x_00981 + x_01013 + x_01053 + x_01069 + x_01073 + x_01189 + x_01190 + x_01269 + x_01273 + x_01370 + x_01375 + x_01379 + x_01382 + x_01468 + x_01564 + x_01579 + x_01580 + x_01645 + x_01649 + x_01651 + x_01693 + x_01694 + x_01695 + x_01702 + x_01748 + x_01786 + x_01789 + x_01790 + x_01836 + x_01918 + x_01931 + x_02000 + x_02001 + x_02029 + x_02040 = 1
 r0105: x_00105 + x_00375 + x_00453 + x_00463 + x_00533 + x_00652 + x_00793 + x_00834 + x_00916 + x_01086 + x_01158 + x_01191 + x_01192 + x_01473 + x_01478 + x_01483 + x_01539 + x_01548 + x_01550 + x_01606 + x_01691 + x_01783 + x_01868 + x_02019 = 1
 r0106: x_00106 + x_00291 + x_00550 + x_00653 + x_00712 + x_00944 + x_00964 + x_01032 + x_01104 + x_01151 + x_01168 + x_01193 + x_01194 + x_01195 + x_01196 + x_01197 + x_01374 + x_01619 + x_01622 + x_01624 + x_01739 + x_01740 + x_01884 + x_01889 + x_01900 + x_01927 + x_01953 + x_01969 + x_01970 + x_01977 + x_01978 + x_02026 + x_02027 + x_02048 = 1
 r0107: x_00107 + x_00194 + x_00272 + x_00376 + x_00668 + x_00814 + x_00965 + x_01018 + x_01062 + x_01078 + x_01118 + x_01132 + x_01178 + x_01198 + x_01290 + x_01359 + x_01482 + x_01698 + x_01897 + x_01921 + x_01934 + x_01935 + x_01936 + x_01944 + x_02050 = 1
 r0108: x_00108 + x_00195 + x_00304 + x_00389 + x_00472 + x_00484 + x_00495 + x_00778 + x_00835 + x_00891 + x_00930 + x_00995 + x_01169 + x_01199 + x_01200 + x_01201 + x_01278 + x_01280 + x_01484 + x_01488 + x_01552 + x_01560 + x_01563 + x_01581 + x_01582 + x_01777 + x_01813 + x_01815 + x_01821 + x_01849 + x_01877 + x_01979 + x_01980 + x_02014 + x_02023 + x_02043 = 1
 r0109: x_00109 + x_00212 + x_00534 + x_00574 + x_00622 + x_00868 + x_00906 + x_00931 + x_00996 + x_01119 + x_01152 + x_01202 + x_01203 + x_01204 + x_01306 + x_01597 + x_01602 + x_01612 + x_01615 + x_01663 + x_01834 + x_01874 + x_01878 + x_01910 + x_01971 + x_02025 = 1
 r0110: x_00110 + x_00292 + x_00358 + x_00535 + x_00632 + x_00869 + x_00917 + x_00932 + x_00945 + x_00952 + x_00997 + x_01039 + x_01042 + x_01120 + x_01153 + x_01205 + x_01206 + x_01383 + x_01386 + x_01454 + x_01461 + x_01613 + x_01673 + x_01875 + x_01879 + x_01882 + x_01885 + x_01890 + x_01891 + x_01911 + x_01962 + x_01972 + x_02010 + x_02049 = 1
 r0111: x_00111 + x_00377 + x_00434 + x_00728 + x_00892 + x_01109 + x_01145 + x_01165 + x_01182 + x_01191 + x_01207 + x_01208 + x_01209 + x_01463 + x_01469 + x_01483 + x_01522 + x_01525 + x_01529 + x_01531 + x_01745 + x_01852 + x_01956 + x_01974 + x_01975 + x_01981 + x_02017 = 1
 r0112: x_00112 + x_00435 + x_00575 + x_00771 + x_00933 + x_01142 + x_01154 + x_01183 + x_01210 + x_01532 + x_01534 + x_01634 + x_01776 = 1
 r0113: x_00113 + x_00496 + x_00681 + x_01110 + x_01129 + x_01193 + x_01199 + x_01211 + x_01212 + x_01213 + x_01214 + x_01215 + x_01216 + x_01575 + x_01581 + x_01583 + x_01957 + x_01958 + x_01977 + x_01978 + x_01979 + x_01982 + x_01983 + x_02022 + x_02023 = 1
 r0114: x_00114 + x_00196 + x_00305 + x_00378 + x_00464 + x_00536 + x_00623 + x_00757 + x_00893 + x_01079 + x_01087 + x_01091 + x_01146 + x_01184 + x_01217 + x_01218 + x_01219 + x_01292 + x_01388 + x_01399 + x_01400 + x_01479 + x_01546 + x_01603 + x_01609 + x_01616 + x_01661 + x_01764 + x_01767 + x_01945 + x_02004 + x_02024 + x_02039 = 1
 r0115: x_00115 + x_00150 + x_00306 + x_00323 + x_00341 + x_00520 + x_00537 + x_00691 + x_00779 + x_00959 + x_01133 + x_01143 + x_01166 + x_01194 + x_01217 + x_01220 + x_01221 + x_01222 + x_01223 + x_01224 + x_01254 + x_01398 + x_01399 + x_01406 + x_01409 + x_01425 + x_01426 + x_01427 + x_01436 + x_01444 + x_01614 + x_01616 + x_01717 + x_01780 + x_01895 + x_01965 + x_01968 + x_01984 + x_01985 + x_02005 = 1
 r0116: x_00116 + x_00163 + x_00213 + x_00342 + x_00379 + x_00473 + x_00538 + x_00692 + x_00836 + x_00844 + x_00982 + x_01033 + x_01054 + x_01092 + x_01099 + x_01195 + x_01225 + x_01226 + x_01227 + x_01258 + x_01265 + x_01266 + x_01305 + x_01433 + x_01442 + x_01553 + x_01715 + x_01718 + x_01719 + x_01809 + x_01820 + x_01823 + x_01927 + x_01932 + x_01951 + x_01952 + x_01987 + x_02034 = 1
 r0117: x_00117 + x_00178 + x_00197 + x_00239 + x_00307 + x_00436 + x_00602 + x_00669 + x_00693 + x_00713 + x_00758 + x_00772 + x_00815 + x_00960 + x_00983 + x_00989 + x_00998 + x_01070 + x_01093 + x_01161 + x_01179 + x_01218 + x_01228 + x_01268 + x_01274 + x_01277 + x_01291 + x_01292 + x_01319 + x_01389 + x_01392 + x_01400 + x_01515 + x_01520 + x_01530 + x_01646 + x_01647 + x_01650 + x_01696 + x_01700 + x_01713 + x_01724 + x_01735 + x_01741 + x_01763 + x_01765 + x_01767 + x_01771 + x_01774 + x_01798 + x_01802 + x_01804 + x_01894 + x_01907 + x_01939 + x_01945 + x_02004 + x_02030 + x_02035 + x_02039 = 1
 r0118: x_00118 + x_00670 + x_00729 + x_00953 + x_01074 + x_01100 + x_01111 + x_01185 + x_01211 + x_01225 + x_01229 + x_01230 + x_01746 + x_01749 + x_01893 + x_01946 + x_01950 + x_01951 + x_01957 + x_01959 + x_01976 + x_01982 + x_02036 = 1
 r0119: x_00119 + x_00324 + x_00654 + x_00759 + x_00855 + x_00934 + x_00946 + x_00966 + x_01007 + x_01112 + x_01180 + x_01231 + x_01232 + x_01233 + x_01416 + x_01417 + x_01420 + x_01423 + x_01428 + x_01686 + x_01692 + x_01766 + x_01829 + x_01832 + x_01833 + x_01872 + x_01902 + x_01903 + x_01916 + x_01960 + x_01961 + x_01986 + x_02007 + x_02008 + x_02009 + x_02044 = 1
 r0120: x_00120 + x_00179 + x_00343 + x_00420 + x_00633 + x_00714 + x_00780 + x_00820 + x_00837 + x_00918 + x_01008 + x_01080 + x_01170 + x_01220 + x_01234 + x_01235 + x_01272 + x_01434 + x_01437 + x_01444 + x_01445 + x_01507 + x_01670 + x_01672 + x_01725 + x_01727 + x_01779 + x_01780 + x_01806 + x_01807 + x_01819 + x_01822 + x_01865 + x_02031 = 1
 r0121: x_00121 + x_00325 + x_00465 + x_00694 + x_00739 + x_00838 + x_00875 + x_00894 + x_00935 + x_01048 + x_01176 + x_01221 + x_01226 + x_01236 + x_01237 + x_01238 + x_01407 + x_01418 + x_01426 + x_01549 + x_01717 + x_01718 + x_01720 + x_01754 + x_01755 + x_01814 + x_01817 + x_01823 + x_01843 + x_01848 + x_01853 + x_01876 + x_01880 + x_01984 + x_01985 + x_02005 + x_02042 = 1
 r0122: x_00122 + x_00261 + x_00359 + x_00437 + x_00612 + x_00655 + x_00856 + x_00919 + x_00976 + x_01027 + x_01147 + x_01328 + x_01344 + x_01348 + x_01526 + x_01656 + x_01687 + x_01689 + x_01831 + x_02033 = 1
 r0123: x_00123 + x_00151 + x_00229 + x_00380 + x_00404 + x_00551 + x_00613 + x_00682 + x_00839 + x_01049 + x_01088 + x_01105 + x_01239 + x_01240 + x_01241 + x_01253 + x_01256 + x_01310 + x_01480 + x_01489 + x_01620 + x_01657 + x_01658 + x_01708 + x_01709 + x_01818 + x_01929 + x_01930 = 1
 r0124: x_00124 + x_00164 + x_00214 + x_00360 + x_00454 + x_00588 + x_00695 + x_00715 + x_00936 + x_00947 + x_00999 + x_01028 + x_01155 + x_01181 + x_01196 + x_01202 + x_01205 + x_01212 + x_01236 + x_01259 + x_01263 + x_01304 + x_01306 + x_01455 + x_01461 + x_01535 + x_01542 + x_01720 + x_01729 + x_01739 + x_01878 + x_01879 + x_01880 + x_01886 + x_01889 + x_01890 + x_01908 + x_01910 + x_01911 + x_01924 + x_01969 + x_01971 + x_01972 + x_01977 + x_02010 + x_02048 + x_02049 = 1
 r0125: x_00125 + x_00230 + x_00361 + x_00390 + x_00716 + x_00816 + x_00920 + x_00954 + x_00977 + x_01089 + x_01186 + x_01207 + x_01213 + x_01222 + x_01228 + x_01237 + x_01242 + x_01312 + x_01318 + x_01460 + x_01741 + x_01742 + x_01796 + x_01801 + x_01804 + x_01869 + x_01975 + x_01984 = 1
 r0126: x_00126 + x_00344 + x_00485 + x_00539 + x_00576 + x_00803 + x_00821 + x_00911 + x_00948 + x_01034 + x_01137 + x_01159 + x_01177 + x_01187 + x_01214 + x_01243 + x_01598 + x_01639 + x_01808 + x_01861 + x_01863 + x_01888 + x_01928 + x_01966 + x_01967 + x_01973 + x_02046 = 1
 r0127: x_00127 + x_00273 + x_00391 + x_00552 + x_00644 + x_00717 + x_00773 + x_00845 + x_00955 + x_00990 + x_01000 + x_01029 + x_01081 + x_01106 + x_01121 + x_01156 + x_01197 + x_01215 + x_01229 + x_01244 + x_01360 + x_01487 + x_01621 + x_01623 + x_01624 + x_01677 + x_01682 + x_01683 + x_01730 + x_01740 + x_01770 + x_01773 + x_01775 + x_01892 + x_01893 + x_01909 + x_01953 + x_01970 + x_01978 + x_01982 + x_01983 + x_02026 + x_02027 = 1
 r0128: x_00128 + x_00308 + x_00392 + x_00438 + x_00540 + x_00730 + x_00901 + x_00921 + x_01009 + x_01019 + x_01035 + x_01071 + x_01113 + x_01130 + x_01188 + x_01203 + x_01230 + x_01396 + x_01397 + x_01523 + x_01533 + x_01604 + x_01611 + x_01615 + x_01747 + x_01749 + x_01856 + x_01858 + x_01915 + x_01920 + x_01926 + x_01937 + x_01941 + x_01959 + x_01976 + x_02036 = 1
 r0129: x_00129 + x_00165 + x_00497 + x_00656 + x_00696 + x_01101 + x_01148 + x_01175 + x_01189 + x_01198 + x_01204 + x_01227 + x_01266 + x_01579 + x_01716 + x_01719 + x_01949 + x_01952 + x_02034 = 1
 r0130: x_00130 + x_00215 + x_00293 + x_00326 + x_00381 + x_00474 + x_00781 + x_00967 + x_01020 + x_01114 + x_01122 + x_01138 + x_01171 + x_01206 + x_01231 + x_01301 + x_01364 + x_01365 + x_01386 + x_01410 + x_01421 + x_01424 + x_01428 + x_01898 + x_01902 + x_01954 + x_01955 + x_01960 + x_01962 + x_02008 + x_02009 = 1
 r0131: x_00131 + x_00216 + x_00262 + x_00589 + x_00718 + x_00740 + x_00817 + x_00857 + x_00876 + x_00895 + x_00902 + x_01001 + x_01055 + x_01075 + x_01123 + x_01134 + x_01172 + x_01208 + x_01223 + x_01232 + x_01238 + x_01239 + x_01245 + x_01246 + x_01303 + x_01341 + x_01347 + x_01349 + x_01351 + x_01640 + x_01642 + x_01734 + x_01743 + x_01755 + x_01803 + x_01826 + x_01833 + x_01842 + x_01843 + x_01850 + x_01852 + x_01853 + x_01942 + x_01943 + x_01965 + x_01981 + x_01985 + x_01986 + x_01998 = 1
 r0132: x_00132 + x_00345 + x_00405 + x_00455 + x_00498 + x_00521 + x_00645 + x_00657 + x_00671 + x_00822 + x_00907 + x_00984 + x_01014 + x_01076 + x_01102 + x_01115 + x_01200 + x_01209 + x_01216 + x_01234 + x_01244 + x_01245 + x_01247 + x_01441 + x_01443 + x_01445 + x_01495 + x_01498 + x_01499 + x_01501 + x_01538 + x_01543 + x_01567 + x_01576 + x_01582 + x_01583 + x_01590 + x_01593 + x_01679 + x_01683 + x_01697 + x_01805 + x_01806 + x_01860 + x_01919 + x_01943 + x_01947 + x_01956 + x_01958 + x_01979 + x_01980 + x_01981 + x_01983 + x_02016 + x_02018 + x_02022 + x_02023 = 1
 r0133: x_00133 + x_00152 + x_00166 + x_00346 + x_00510 + x_00563 + x_00697 + x_00782 + x_00823 + x_00846 + x_00937 + x_01144 + x_01219 + x_01240 + x_01255 + x_01256 + x_01431 + x_01625 + x_01631 + x_01633 + x_01824 + x_02028 = 1
 r0134: x_00134 + x_00231 + x_00382 + x_00499 + x_00511 + x_00614 + x_00658 + x_00683 + x_00731 + x_00804 + x_00978 + x_01021 + x_01116 + x_01167 + x_01311 + x_01466 + x_01470 + x_01475 + x_01573 + x_01577 + x_01584 + x_01588 + x_01690 + x_01706 + x_01791 + x_01904 + x_01905 + x_02012 + x_02013 = 1
 r0135: x_00135 + x_00167 + x_00274 + x_00439 + x_00500 + x_00634 + x_00719 + x_00774 + x_00908 + x_00922 + x_00968 + x_01022 + x_01043 + x_01082 + x_01117 + x_01149 + x_01162 + x_01210 + x_01233 + x_01242 + x_01246 + x_01261 + x_01353 + x_01357 + x_01519 + x_01524 + x_01527 + x_01534 + x_01566 + x_01568 + x_01571 + x_01574 + x_01578 + x_01671 + x_01674 + x_01728 + x_01733 + x_01738 + x_01742 + x_01743 + x_01772 + x_01776 + x_01864 + x_01866 + x_01869 + x_01899 + x_01903 + x_01922 + x_01961 + x_01986 + x_02020 + x_02021 + x_02032 = 1
 r0136: x_00136 + x_00327 + x_00393 + x_00486 + x_00720 + x_00884 + x_00923 + x_00938 + x_01083 + x_01094 + x_01192 + x_01201 + x_01224 + x_01247 + x_01419 + x_01427 + x_01485 + x_01488 + x_01561 + x_01563 + x_01736 + x_01867 + x_01868 + x_01877 + x_01980 + x_02014 = 1
 r0137: x_00137 + x_00501 + x_00564 + x_00577 + x_00672 + x_00684 + x_00698 + x_00732 + x_00760 + x_00824 + x_00912 + x_00969 + x_01036 + x_01139 + x_01190 + x_01235 + x_01241 + x_01243 + x_01569 + x_01572 + x_01580 + x_01626 + x_01632 + x_01639 + x_01701 + x_01702 + x_01705 + x_01709 + x_01744 + x_01748 + x_01807 + x_01808 + x_01862 + x_01863 + x_01901 + x_01928 + x_01967 + x_02046 = 1
 r0138: x_00000 + x_00001 + x_00002 + x_00003 + x_00004 + x_00005 + x_00006 + x_00007 + x_00008 + x_00009 + x_00010 + x_00011 + x_00012 + x_00013 + x_00014 + x_00015 + x_00016 + x_00017 + x_00018 + x_00019 + x_00020 + x_00021 + x_00022 + x_00023 + x_00024 + x_00025 + x_00026 + x_00027 + x_00028 + x_00029 + x_00030 + x_00031 + x_00032 + x_00033 + x_00034 + x_00035 + x_00036 + x_00037 + x_00038 + x_00039 + x_00040 + x_00041 + x_00042 + x_00043 + x_00044 + x_00045 + x_00046 + x_00047 + x_00048 + x_00049 + x_00050 + x_00051 + x_00052 + x_00053 + x_00054 + x_00055 + x_00056 + x_00057 + x_00058 + x_00059 + x_00060 + x_00061 + x_00062 + x_00063 + x_00064 + x_00065 + x_00066 + x_00067 + x_00068 + x_00069 + x_00070 + x_00071 + x_00072 + x_00073 + x_00074 + x_00075 + x_00076 + x_00077 + x_00078 + x_00079 + x_00080 + x_00081 + x_00082 + x_00083 + x_00084 + x_00085 + x_00086 + x_00087 + x_00088 + x_00089 + x_00090 + x_00091 + x_00092 + x_00093 + x_00094 + x_00095 + x_00096 + x_00097 + x_00098 + x_00099 + x_00100 + x_00101 + x_00102 + x_00103 + x_00104 + x_00105 + x_00106 + x_00107 + x_00108 + x_00109 + x_00110 + x_00111 + x_00112 + x_00113 + x_00114 + x_00115 + x_00116 + x_00117 + x_00118 + x_00119 + x_00120 + x_00121 + x_00122 + x_00123 + x_00124 + x_00125 + x_00126 + x_00127 + x_00128 + x_00129 + x_00130 + x_00131 + x_00132 + x_00133 + x_00134 + x_00135 + x_00136 + x_00137 + x_00138 + x_00139 + x_00140 + x_00141 + x_00142 + x_00143 + x_00144 + x_00145 + x_00146 + x_00147 + x_00148 + x_00149 + x_00150 + x_00151 + x_00152 + x_00153 + x_00154 + x_00155 + x_00156 + x_00157 + x_00158 + x_00159 + x_00160 + x_00161 + x_00162 + x_00163 + x_00164 + x_00165 + x_00166 + x_00167 + x_00168 + x_00169 + x_00170 + x_00171 + x_00172 + x_00173 + x_00174 + x_00175 + x_00176 + x_00177 + x_00178 + x_00179 + x_00180 + x_00181 + x_00182 + x_00183 + x_00184 + x_00185 + x_00186 + x_00187 + x_00188 + x_00189 + x_00190 + x_00191 + x_00192 + x_00193 + x_00194 + x_00195 + x_00196 + x_00197 + x_00198 + x_00199 + x_00200 + x_00201 + x_00202 + x_00203 + x_00204 + x_00205 + x_00206 + x_00207 + x_00208 + x_00209 + x_00210 + x_00211 + x_00212 + x_00213 + x_00214 + x_00215 + x_00216 + x_00217 + x_00218 + x_00219 + x_00220 + x_00221 + x_00222 + x_00223 + x_00224 + x_00225 + x_00226 + x_00227 + x_00228 + x_00229 + x_00230 + x_00231 + x_00232 + x_00233 + x_00234 + x_00235 + x_00236 + x_00237 + x_00238 + x_00239 + x_00240 + x_00241 + x_00242 + x_00243 + x_00244 + x_00245 + x_00246 + x_00247 + x_00248 + x_00249 + x_00250 + x_00251 + x_00252 + x_00253 + x_00254 + x_00255 + x_00256 + x_00257 + x_00258 + x_00259 + x_00260 + x_00261 + x_00262 + x_00263 + x_00264 + x_00265 + x_00266 + x_00267 + x_00268 + x_00269 + x_00270 + x_00271 + x_00272 + x_00273 + x_00274 + x_00275 + x_00276 + x_00277 + x_00278 + x_00279 + x_00280 + x_00281 + x_00282 + x_00283 + x_00284 + x_00285 + x_00286 + x_00287 + x_00288 + x_00289 + x_00290 + x_00291 + x_00292 + x_00293 + x_00294 + x_00295 + x_00296 + x_00297 + x_00298 + x_00299 + x_00300 + x_00301 + x_00302 + x_00303 + x_00304 + x_00305 + x_00306 + x_00307 + x_00308 + x_00309 + x_00310 + x_00311 + x_00312 + x_00313 + x_00314 + x_00315 + x_00316 + x_00317 + x_00318 + x_00319 + x_00320 + x_00321 + x_00322 + x_00323 + x_00324 + x_00325 + x_00326 + x_00327 + x_00328 + x_00329 + x_00330 + x_00331 + x_00332 + x_00333 + x_00334 + x_00335 + x_00336 + x_00337 + x_00338 + x_00339 + x_00340 + x_00341 + x_00342 + x_00343 + x_00344 + x_00345 + x_00346 + x_00347 + x_00348 + x_00349 + x_00350 + x_00351 + x_00352 + x_00353 + x_00354 + x_00355 + x_00356 + x_00357 + x_00358 + x_00359 + x_00360 + x_00361 + x_00362 + x_00363 + x_00364 + x_00365 + x_00366 + x_00367 + x_00368 + x_00369 + x_00370 + x_00371 + x_00372 + x_00373 + x_00374 + x_00375 + x_00376 + x_00377 + x_00378 + x_00379 + x_00380 + x_00381 + x_00382 + x_00383 + x_00384 + x_00385 + x_00386 + x_00387 + x_00388 + x_00389 + x_00390 + x_00391 + x_00392 + x_00393 + x_00394 + x_00395 + x_00396 + x_00397 + x_00398 + x_00399 + x_00400 + x_00401 + x_00402 + x_00403 + x_00404 + x_00405 + x_00406 + x_00407 + x_00408 + x_00409 + x_00410 + x_00411 + x_00412 + x_00413 + x_00414 + x_00415 + x_00416 + x_00417 + x_00418 + x_00419 + x_00420 + x_00421 + x_00422 + x_00423 + x_00424 + x_00425 + x_00426 + x_00427 + x_00428 + x_00429 + x_00430 + x_00431 + x_00432 + x_00433 + x_00434 + x_00435 + x_00436 + x_00437 + x_00438 + x_00439 + x_00440 + x_00441 + x_00442 + x_00443 + x_00444 + x_00445 + x_00446 + x_00447 + x_00448 + x_00449 + x_00450 + x_00451 + x_00452 + x_00453 + x_00454 + x_00455 + x_00456 + x_00457 + x_00458 + x_00459 + x_00460 + x_00461 + x_00462 + x_00463 + x_00464 + x_00465 + x_00466 + x_00467 + x_00468 + x_00469 + x_00470 + x_00471 + x_00472 + x_00473 + x_00474 + x_00475 + x_00476 + x_00477 + x_00478 + x_00479 + x_00480 + x_00481 + x_00482 + x_00483 + x_00484 + x_00485 + x_00486 + x_00487 + x_00488 + x_00489 + x_00490 + x_00491 + x_00492 + x_00493 + x_00494 + x_00495 + x_00496 + x_00497 + x_00498 + x_00499 + x_00500 + x_00501 + x_00502 + x_00503 + x_00504 + x_00505 + x_00506 + x_00507 + x_00508 + x_00509 + x_00510 + x_00511 + x_00512 + x_00513 + x_00514 + x_00515 + x_00516 + x_00517 + x_00518 + x_00519 + x_00520 + x_00521 + x_00522 + x_00523 + x_00524 + x_00525 + x_00526 + x_00527 + x_00528 + x_00529 + x_00530 + x_00531 + x_00532 + x_00533 + x_00534 + x_00535 + x_00536 + x_00537 + x_00538 + x_00539 + x_00540 + x_00541 + x_00542 + x_00543 + x_00544 + x_00545 + x_00546 + x_00547 + x_00548 + x_00549 + x_00550 + x_00551 + x_00552 + x_00553 + x_00554 + x_00555 + x_00556 + x_00557 + x_00558 + x_00559 + x_00560 + x_00561 + x_00562 + x_00563 + x_00564 + x_00565 + x_00566 + x_00567 + x_00568 + x_00569 + x_00570 + x_00571 + x_00572 + x_00573 + x_00574 + x_00575 + x_00576 + x_00577 + x_00578 + x_00579 + x_00580 + x_00581 + x_00582 + x_00583 + x_00584 + x_00585 + x_00586 + x_00587 + x_00588 + x_00589 + x_00590 + x_00591 + x_00592 + x_00593 + x_00594 + x_00595 + x_00596 + x_00597 + x_00598 + x_00599 + x_00600 + x_00601 + x_00602 + x_00603 + x_00604 + x_00605 + x_00606 + x_00607 + x_00608 + x_00609 + x_00610 + x_00611 + x_00612 + x_00613 + x_00614 + x_00615 + x_00616 + x_00617 + x_00618 + x_00619 + x_00620 + x_00621 + x_00622 + x_00623 + x_00624 + x_00625 + x_00626 + x_00627 + x_00628 + x_00629 + x_00630 + x_00631 + x_00632 + x_00633 + x_00634 + x_00635 + x_00636 + x_00637 + x_00638 + x_00639 + x_00640 + x_00641 + x_00642 + x_00643 + x_00644 + x_00645 + x_00646 + x_00647 + x_00648 + x_00649 + x_00650 + x_00651 + x_00652 + x_00653 + x_00654 + x_00655 + x_00656 + x_00657 + x_00658 + x_00659 + x_00660 + x_00661 + x_00662 + x_00663 + x_00664 + x_00665 + x_00666 + x_00667 + x_00668 + x_00669 + x_00670 + x_00671 + x_00672 + x_00673 + x_00674 + x_00675 + x_00676 + x_00677 + x_00678 + x_00679 + x_00680 + x_00681 + x_00682 + x_00683 + x_00684 + x_00685 + x_00686 + x_00687 + x_00688 + x_00689 + x_00690 + x_00691 + x_00692 + x_00693 + x_00694 + x_00695 + x_00696 + x_00697 + x_00698 + x_00699 + x_00700 + x_00701 + x_00702 + x_00703 + x_00704 + x_00705 + x_00706 + x_00707 + x_00708 + x_00709 + x_00710 + x_00711 + x_00712 + x_00713 + x_00714 + x_00715 + x_00716 + x_00717 + x_00718 + x_00719 + x_00720 + x_00721 + x_00722 + x_00723 + x_00724 + x_00725 + x_00726 + x_00727 + x_00728 + x_00729 + x_00730 + x_00731 + x_00732 + x_00733 + x_00734 + x_00735 + x_00736 + x_00737 + x_00738 + x_00739 + x_00740 + x_00741 + x_00742 + x_00743 + x_00744 + x_00745 + x_00746 + x_00747 + x_00748 + x_00749 + x_00750 + x_00751 + x_00752 + x_00753 + x_00754 + x_00755 + x_00756 + x_00757 + x_00758 + x_00759 + x_00760 + x_00761 + x_00762 + x_00763 + x_00764 + x_00765 + x_00766 + x_00767 + x_00768 + x_00769 + x_00770 + x_00771 + x_00772 + x_00773 + x_00774 + x_00775 + x_00776 + x_00777 + x_00778 + x_00779 + x_00780 + x_00781 + x_00782 + x_00783 + x_00784 + x_00785 + x_00786 + x_00787 + x_00788 + x_00789 + x_00790 + x_00791 + x_00792 + x_00793 + x_00794 + x_00795 + x_00796 + x_00797 + x_00798 + x_00799 + x_00800 + x_00801 + x_00802 + x_00803 + x_00804 + x_00805 + x_00806 + x_00807 + x_00808 + x_00809 + x_00810 + x_00811 + x_00812 + x_00813 + x_00814 + x_00815 + x_00816 + x_00817 + x_00818 + x_00819 + x_00820 + x_00821 + x_00822 + x_00823 + x_00824 + x_00825 + x_00826 + x_00827 + x_00828 + x_00829 + x_00830 + x_00831 + x_00832 + x_00833 + x_00834 + x_00835 + x_00836 + x_00837 + x_00838 + x_00839 + x_00840 + x_00841 + x_00842 + x_00843 + x_00844 + x_00845 + x_00846 + x_00847 + x_00848 + x_00849 + x_00850 + x_00851 + x_00852 + x_00853 + x_00854 + x_00855 + x_00856 + x_00857 + x_00858 + x_00859 + x_00860 + x_00861 + x_00862 + x_00863 + x_00864 + x_00865 + x_00866 + x_00867 + x_00868 + x_00869 + x_00870 + x_00871 + x_00872 + x_00873 + x_00874 + x_00875 + x_00876 + x_00877 + x_00878 + x_00879 + x_00880 + x_00881 + x_00882 + x_00883 + x_00884 + x_00885 + x_00886 + x_00887 + x_00888 + x_00889 + x_00890 + x_00891 + x_00892 + x_00893 + x_00894 + x_00895 + x_00896 + x_00897 + x_00898 + x_00899 + x_00900 + x_00901 + x_00902 + x_00903 + x_00904 + x_00905 + x_00906 + x_00907 + x_00908 + x_00909 + x_00910 + x_00911 + x_00912 + x_00913 + x_00914 + x_00915 + x_00916 + x_00917 + x_00918 + x_00919 + x_00920 + x_00921 + x_00922 + x_00923 + x_00924 + x_00925 + x_00926 + x_00927 + x_00928 + x_00929 + x_00930 + x_00931 + x_00932 + x_00933 + x_00934 + x_00935 + x_00936 + x_00937 + x_00938 + x_00939 + x_00940 + x_00941 + x_00942 + x_00943 + x_00944 + x_00945 + x_00946 + x_00947 + x_00948 + x_00949 + x_00950 + x_00951 + x_00952 + x_00953 + x_00954 + x_00955 + x_00956 + x_00957 + x_00958 + x_00959 + x_00960 + x_00961 + x_00962 + x_00963 + x_00964 + x_00965 + x_00966 + x_00967 + x_00968 + x_00969 + x_00970 + x_00971 + x_00972 + x_00973 + x_00974 + x_00975 + x_00976 + x_00977 + x_00978 + x_00979 + x_00980 + x_00981 + x_00982 + x_00983 + x_00984 + x_00985 + x_00986 + x_00987 + x_00988 + x_00989 + x_00990 + x_00991 + x_00992 + x_00993 + x_00994 + x_00995 + x_00996 + x_00997 + x_00998 + x_00999 + x_01000 + x_01001 + x_01002 + x_01003 + x_01004 + x_01005 + x_01006 + x_01007 + x_01008 + x_01009 + x_01010 + x_01011 + x_01012 + x_01013 + x_01014 + x_01015 + x_01016 + x_01017 + x_01018 + x_01019 + x_01020 + x_01021 + x_01022 + x_01023 + x_01024 + x_01025 + x_01026 + x_01027 + x_01028 + x_01029 + x_01030 + x_01031 + x_01032 + x_01033 + x_01034 + x_01035 + x_01036 + x_01037 + x_01038 + x_01039 + x_01040 + x_01041 + x_01042 + x_01043 + x_01044 + x_01045 + x_01046 + x_01047 + x_01048 + x_01049 + x_01050 + x_01051 + x_01052 + x_01053 + x_01054 + x_01055 + x_01056 + x_01057 + x_01058 + x_01059 + x_01060 + x_01061 + x_01062 + x_01063 + x_01064 + x_01065 + x_01066 + x_01067 + x_01068 + x_01069 + x_01070 + x_01071 + x_01072 + x_01073 + x_01074 + x_01075 + x_01076 + x_01077 + x_01078 + x_01079 + x_01080 + x_01081 + x_01082 + x_01083 + x_01084 + x_01085 + x_01086 + x_01087 + x_01088 + x_01089 + x_01090 + x_01091 + x_01092 + x_01093 + x_01094 + x_01095 + x_01096 + x_01097 + x_01098 + x_01099 + x_01100 + x_01101 + x_01102 + x_01103 + x_01104 + x_01105 + x_01106 + x_01107 + x_01108 + x_01109 + x_01110 + x_01111 + x_01112 + x_01113 + x_01114 + x_01115 + x_01116 + x_01117 + x_01118 + x_01119 + x_01120 + x_01121 + x_01122 + x_01123 + x_01124 + x_01125 + x_01126 + x_01127 + x_01128 + x_01129 + x_01130 + x_01131 + x_01132 + x_01133 + x_01134 + x_01135 + x_01136 + x_01137 + x_01138 + x_01139 + x_01140 + x_01141 + x_01142 + x_01143 + x_01144 + x_01145 + x_01146 + x_01147 + x_01148 + x_01149 + x_01150 + x_01151 + x_01152 + x_01153 + x_01154 + x_01155 + x_01156 + x_01157 + x_01158 + x_01159 + x_01160 + x_01161 + x_01162 + x_01163 + x_01164 + x_01165 + x_01166 + x_01167 + x_01168 + x_01169 + x_01170 + x_01171 + x_01172 + x_01173 + x_01174 + x_01175 + x_01176 + x_01177 + x_01178 + x_01179 + x_01180 + x_01181 + x_01182 + x_01183 + x_01184 + x_01185 + x_01186 + x_01187 + x_01188 + x_01189 + x_01190 + x_01191 + x_01192 + x_01193 + x_01194 + x_01195 + x_01196 + x_01197 + x_01198 + x_01199 + x_01200 + x_01201 + x_01202 + x_01203 + x_01204 + x_01205 + x_01206 + x_01207 + x_01208 + x_01209 + x_01210 + x_01211 + x_01212 + x_01213 + x_01214 + x_01215 + x_01216 + x_01217 + x_01218 + x_01219 + x_01220 + x_01221 + x_01222 + x_01223 + x_01224 + x_01225 + x_01226 + x_01227 + x_01228 + x_01229 + x_01230 + x_01231 + x_01232 + x_01233 + x_01234 + x_01235 + x_01236 + x_01237 + x_01238 + x_01239 + x_01240 + x_01241 + x_01242 + x_01243 + x_01244 + x_01245 + x_01246 + x_01247 + x_01248 + x_01249 + x_01250 + x_01251 + x_01252 + x_01253 + x_01254 + x_01255 + x_01256 + x_01257 + x_01258 + x_01259 + x_01260 + x_01261 + x_01262 + x_01263 + x_01264 + x_01265 + x_01266 + x_01267 + x_01268 + x_01269 + x_01270 + x_01271 + x_01272 + x_01273 + x_01274 + x_01275 + x_01276 + x_01277 + x_01278 + x_01279 + x_01280 + x_01281 + x_01282 + x_01283 + x_01284 + x_01285 + x_01286 + x_01287 + x_01288 + x_01289 + x_01290 + x_01291 + x_01292 + x_01293 + x_01294 + x_01295 + x_01296 + x_01297 + x_01298 + x_01299 + x_01300 + x_01301 + x_01302 + x_01303 + x_01304 + x_01305 + x_01306 + x_01307 + x_01308 + x_01309 + x_01310 + x_01311 + x_01312 + x_01313 + x_01314 + x_01315 + x_01316 + x_01317 + x_01318 + x_01319 + x_01320 + x_01321 + x_01322 + x_01323 + x_01324 + x_01325 + x_01326 + x_01327 + x_01328 + x_01329 + x_01330 + x_01331 + x_01332 + x_01333 + x_01334 + x_01335 + x_01336 + x_01337 + x_01338 + x_01339 + x_01340 + x_01341 + x_01342 + x_01343 + x_01344 + x_01345 + x_01346 + x_01347 + x_01348 + x_01349 + x_01350 + x_01351 + x_01352 + x_01353 + x_01354 + x_01355 + x_01356 + x_01357 + x_01358 + x_01359 + x_01360 + x_01361 + x_01362 + x_01363 + x_01364 + x_01365 + x_01366 + x_01367 + x_01368 + x_01369 + x_01370 + x_01371 + x_01372 + x_01373 + x_01374 + x_01375 + x_01376 + x_01377 + x_01378 + x_01379 + x_01380 + x_01381 + x_01382 + x_01383 + x_01384 + x_01385 + x_01386 + x_01387 + x_01388 + x_01389 + x_01390 + x_01391 + x_01392 + x_01393 + x_01394 + x_01395 + x_01396 + x_01397 + x_01398 + x_01399 + x_01400 + x_01401 + x_01402 + x_01403 + x_01404 + x_01405 + x_01406 + x_01407 + x_01408 + x_01409 + x_01410 + x_01411 + x_01412 + x_01413 + x_01414 + x_01415 + x_01416 + x_01417 + x_01418 + x_01419 + x_01420 + x_01421 + x_01422 + x_01423 + x_01424 + x_01425 + x_01426 + x_01427 + x_01428 + x_01429 + x_01430 + x_01431 + x_01432 + x_01433 + x_01434 + x_01435 + x_01436 + x_01437 + x_01438 + x_01439 + x_01440 + x_01441 + x_01442 + x_01443 + x_01444 + x_01445 + x_01446 + x_01447 + x_01448 + x_01449 + x_01450 + x_01451 + x_01452 + x_01453 + x_01454 + x_01455 + x_01456 + x_01457 + x_01458 + x_01459 + x_01460 + x_01461 + x_01462 + x_01463 + x_01464 + x_01465 + x_01466 + x_01467 + x_01468 + x_01469 + x_01470 + x_01471 + x_01472 + x_01473 + x_01474 + x_01475 + x_01476 + x_01477 + x_01478 + x_01479 + x_01480 + x_01481 + x_01482 + x_01483 + x_01484 + x_01485 + x_01486 + x_01487 + x_01488 + x_01489 + x_01490 + x_01491 + x_01492 + x_01493 + x_01494 + x_01495 + x_01496 + x_01497 + x_01498 + x_01499 + x_01500 + x_01501 + x_01502 + x_01503 + x_01504 + x_01505 + x_01506 + x_01507 + x_01508 + x_01509 + x_01510 + x_01511 + x_01512 + x_01513 + x_01514 + x_01515 + x_01516 + x_01517 + x_01518 + x_01519 + x_01520 + x_01521 + x_01522 + x_01523 + x_01524 + x_01525 + x_01526 + x_01527 + x_01528 + x_01529 + x_01530 + x_01531 + x_01532 + x_01533 + x_01534 + x_01535 + x_01536 + x_01537 + x_01538 + x_01539 + x_01540 + x_01541 + x_01542 + x_01543 + x_01544 + x_01545 + x_01546 + x_01547 + x_01548 + x_01549 + x_01550 + x_01551 + x_01552 + x_01553 + x_01554 + x_01555 + x_01556 + x_01557 + x_01558 + x_01559 + x_01560 + x_01561 + x_01562 + x_01563 + x_01564 + x_01565 + x_01566 + x_01567 + x_01568 + x_01569 + x_01570 + x_01571 + x_01572 + x_01573 + x_01574 + x_01575 + x_01576 + x_01577 + x_01578 + x_01579 + x_01580 + x_01581 + x_01582 + x_01583 + x_01584 + x_01585 + x_01586 + x_01587 + x_01588 + x_01589 + x_01590 + x_01591 + x_01592 + x_01593 + x_01594 + x_01595 + x_01596 + x_01597 + x_01598 + x_01599 + x_01600 + x_01601 + x_01602 + x_01603 + x_01604 + x_01605 + x_01606 + x_01607 + x_01608 + x_01609 + x_01610 + x_01611 + x_01612 + x_01613 + x_01614 + x_01615 + x_01616 + x_01617 + x_01618 + x_01619 + x_01620 + x_01621 + x_01622 + x_01623 + x_01624 + x_01625 + x_01626 + x_01627 + x_01628 + x_01629 + x_01630 + x_01631 + x_01632 + x_01633 + x_01634 + x_01635 + x_01636 + x_01637 + x_01638 + x_01639 + x_01640 + x_01641 + x_01642 + x_01643 + x_01644 + x_01645 + x_01646 + x_01647 + x_01648 + x_01649 + x_01650 + x_01651 + x_01652 + x_01653 + x_01654 + x_01655 + x_01656 + x_01657 + x_01658 + x_01659 + x_01660 + x_01661 + x_01662 + x_01663 + x_01664 + x_01665 + x_01666 + x_01667 + x_01668 + x_01669 + x_01670 + x_01671 + x_01672 + x_01673 + x_01674 + x_01675 + x_01676 + x_01677 + x_01678 + x_01679 + x_01680 + x_01681 + x_01682 + x_01683 + x_01684 + x_01685 + x_01686 + x_01687 + x_01688 + x_01689 + x_01690 + x_01691 + x_01692 + x_01693 + x_01694 + x_01695 + x_01696 + x_01697 + x_01698 + x_01699 + x_01700 + x_01701 + x_01702 + x_01703 + x_01704 + x_01705 + x_01706 + x_01707 + x_01708 + x_01709 + x_01710 + x_01711 + x_01712 + x_01713 + x_01714 + x_01715 + x_01716 + x_01717 + x_01718 + x_01719 + x_01720 + x_01721 + x_01722 + x_01723 + x_01724 + x_01725 + x_01726 + x_01727 + x_01728 + x_01729 + x_01730 + x_01731 + x_01732 + x_01733 + x_01734 + x_01735 + x_01736 + x_01737 + x_01738 + x_01739 + x_01740 + x_01741 + x_01742 + x_01743 + x_01744 + x_01745 + x_01746 + x_01747 + x_01748 + x_01749 + x_01750 + x_01751 + x_01752 + x_01753 + x_01754 + x_01755 + x_01756 + x_01757 + x_01758 + x_01759 + x_01760 + x_01761 + x_01762 + x_01763 + x_01764 + x_01765 + x_01766 + x_01767 + x_01768 + x_01769 + x_01770 + x_01771 + x_01772 + x_01773 + x_01774 + x_01775 + x_01776 + x_01777 + x_01778 + x_01779 + x_01780 + x_01781 + x_01782 + x_01783 + x_01784 + x_01785 + x_01786 + x_01787 + x_01788 + x_01789 + x_01790 + x_01791 + x_01792 + x_01793 + x_01794 + x_01795 + x_01796 + x_01797 + x_01798 + x_01799 + x_01800 + x_01801 + x_01802 + x_01803 + x_01804 + x_01805 + x_01806 + x_01807 + x_01808 + x_01809 + x_01810 + x_01811 + x_01812 + x_01813 + x_01814 + x_01815 + x_01816 + x_01817 + x_01818 + x_01819 + x_01820 + x_01821 + x_01822 + x_01823 + x_01824 + x_01825 + x_01826 + x_01827 + x_01828 + x_01829 + x_01830 + x_01831 + x_01832 + x_01833 + x_01834 + x_01835 + x_01836 + x_01837 + x_01838 + x_01839 + x_01840 + x_01841 + x_01842 + x_01843 + x_01844 + x_01845 + x_01846 + x_01847 + x_01848 + x_01849 + x_01850 + x_01851 + x_01852 + x_01853 + x_01854 + x_01855 + x_01856 + x_01857 + x_01858 + x_01859 + x_01860 + x_01861 + x_01862 + x_01863 + x_01864 + x_01865 + x_01866 + x_01867 + x_01868 + x_01869 + x_01870 + x_01871 + x_01872 + x_01873 + x_01874 + x_01875 + x_01876 + x_01877 + x_01878 + x_01879 + x_01880 + x_01881 + x_01882 + x_01883 + x_01884 + x_01885 + x_01886 + x_01887 + x_01888 + x_01889 + x_01890 + x_01891 + x_01892 + x_01893 + x_01894 + x_01895 + x_01896 + x_01897 + x_01898 + x_01899 + x_01900 + x_01901 + x_01902 + x_01903 + x_01904 + x_01905 + x_01906 + x_01907 + x_01908 + x_01909 + x_01910 + x_01911 + x_01912 + x_01913 + x_01914 + x_01915 + x_01916 + x_01917 + x_01918 + x_01919 + x_01920 + x_01921 + x_01922 + x_01923 + x_01924 + x_01925 + x_01926 + x_01927 + x_01928 + x_01929 + x_01930 + x_01931 + x_01932 + x_01933 + x_01934 + x_01935 + x_01936 + x_01937 + x_01938 + x_01939 + x_01940 + x_01941 + x_01942 + x_01943 + x_01944 + x_01945 + x_01946 + x_01947 + x_01948 + x_01949 + x_01950 + x_01951 + x_01952 + x_01953 + x_01954 + x_01955 + x_01956 + x_01957 + x_01958 + x_01959 + x_01960 + x_01961 + x_01962 + x_01963 + x_01964 + x_01965 + x_01966 + x_01967 + x_01968 + x_01969 + x_01970 + x_01971 + x_01972 + x_01973 + x_01974 + x_01975 + x_01976 + x_01977 + x_01978 + x_01979 + x_01980 + x_01981 + x_01982 + x_01983 + x_01984 + x_01985 + x_01986 + x_01987 + x_01988 + x_01989 + x_01990 + x_01991 + x_01992 + x_01993 + x_01994 + x_01995 + x_01996 + x_01997 + x_01998 + x_01999 + x_02000 + x_02001 + x_02002 + x_02003 + x_02004 + x_02005 + x_02006 + x_02007 + x_02008 + x_02009 + x_02010 + x_02011 + x_02012 + x_02013 + x_02014 + x_02015 + x_02016 + x_02017 + x_02018 + x_02019 + x_02020 + x_02021 + x_02022 + x_02023 + x_02024 + x_02025 + x_02026 + x_02027 + x_02028 + x_02029 + x_02030 + x_02031 + x_02032 + x_02033 + x_02034 + x_02035 + x_02036 + x_02037 + x_02038 + x_02039 + x_02040 + x_02041 + x_02042 + x_02043 + x_02044 + x_02045 + x_02046 + x_02047 + x_02048 + x_02049 + x_02050 - y_1_1 - y_1_2 - y_1_3 - y_1_4 - y_1_5 - y_1_6 - y_1_7 - y_1_8 - y_1_9 - y_1_10 - y_1_11 - y_1_12 - y_1_13 - y_1_14 - y_1_15 - y_1_16 - y_1_17 - y_1_18 - y_1_19 - y_1_20 - y_1_21 - y_1_22 - y_1_23 - y_1_24 - y_1_25 - y_1_26 - y_1_27 - y_1_28 - y_1_29 - y_1_30 - y_1_31 - y_1_32 - y_1_33 - y_1_34 - y_1_35 - y_1_36 - y_1_37 - y_1_38 - y_1_39 - y_1_40 - y_1_41 - y_1_42 - y_1_43 - y_1_44 - y_1_45 - y_1_46 - y_1_47 - y_1_48 - y_1_49 - y_1_50 - y_1_51 - y_1_52 - y_1_53 - y_1_54 - y_1_55 - y_1_56 - y_1_57 - y_1_58 - y_1_59 - y_1_60 - y_1_61 - y_1_62 - y_1_63 - y_1_64 - y_1_65 - y_1_66 - y_1_67 - y_1_68 - y_1_69 - y_1_70 - y_1_71 - y_1_72 - y_1_73 - y_1_74 - y_1_75 - y_1_76 - y_1_77 - y_1_78 - y_1_79 - y_1_80 - y_1_81 - y_1_82 - y_1_83 - y_1_84 - y_1_85 - y_1_86 - y_1_87 - y_1_88 - y_1_89 - y_1_90 - y_1_91 - y_1_92 - y_1_93 - y_1_94 - y_1_95 - y_1_96 - y_1_97 - y_1_98 - y_1_99 - y_1_100 - y_1_101 - y_1_102 - y_1_103 - y_1_104 - y_1_105 - y_1_106 - y_1_107 - y_1_108 - y_1_109 - y_1_110 - y_1_111 - y_1_112 - y_1_113 - y_1_114 - y_1_115 - y_1_116 - y_1_117 - y_1_118 - y_1_119 - y_1_120 - y_1_121 - y_1_122 - y_1_123 - y_1_124 - y_1_125 - y_1_126 - y_1_127 - y_1_128 - y_1_129 - y_1_130 - y_1_131 - y_1_132 - y_1_133 - y_1_134 - y_1_135 - y_1_136 - y_1_137 - y_1_138 = 0
 r0139: x_00138 + x_00139 + x_00140 + x_00141 + x_00142 + x_00143 + x_00144 + x_00145 + x_00146 + x_00147 + x_00148 + x_00149 + x_00150 + x_00151 + x_00152 + x_00153 + x_00154 + x_00155 + x_00156 + x_00157 + x_00158 + x_00159 + x_00160 + x_00161 + x_00162 + x_00163 + x_00164 + x_00165 + x_00166 + x_00167 + x_00168 + x_00169 + x_00170 + x_00171 + x_00172 + x_00173 + x_00174 + x_00175 + x_00176 + x_00177 + x_00178 + x_00179 + x_00180 + x_00181 + x_00182 + x_00183 + x_00184 + x_00185 + x_00186 + x_00187 + x_00188 + x_00189 + x_00190 + x_00191 + x_00192 + x_00193 + x_00194 + x_00195 + x_00196 + x_00197 + x_00198 + x_00199 + x_00200 + x_00201 + x_00202 + x_00203 + x_00204 + x_00205 + x_00206 + x_00207 + x_00208 + x_00209 + x_00210 + x_00211 + x_00212 + x_00213 + x_00214 + x_00215 + x_00216 + x_00217 + x_00218 + x_00219 + x_00220 + x_00221 + x_00222 + x_00223 + x_00224 + x_00225 + x_00226 + x_00227 + x_00228 + x_00229 + x_00230 + x_00231 + x_00232 + x_00233 + x_00234 + x_00235 + x_00236 + x_00237 + x_00238 + x_00239 + x_00240 + x_00241 + x_00242 + x_00243 + x_00244 + x_00245 + x_00246 + x_00247 + x_00248 + x_00249 + x_00250 + x_00251 + x_00252 + x_00253 + x_00254 + x_00255 + x_00256 + x_00257 + x_00258 + x_00259 + x_00260 + x_00261 + x_00262 + x_00263 + x_00264 + x_00265 + x_00266 + x_00267 + x_00268 + x_00269 + x_00270 + x_00271 + x_00272 + x_00273 + x_00274 + x_00275 + x_00276 + x_00277 + x_00278 + x_00279 + x_00280 + x_00281 + x_00282 + x_00283 + x_00284 + x_00285 + x_00286 + x_00287 + x_00288 + x_00289 + x_00290 + x_00291 + x_00292 + x_00293 + x_00294 + x_00295 + x_00296 + x_00297 + x_00298 + x_00299 + x_00300 + x_00301 + x_00302 + x_00303 + x_00304 + x_00305 + x_00306 + x_00307 + x_00308 + x_00309 + x_00310 + x_00311 + x_00312 + x_00313 + x_00314 + x_00315 + x_00316 + x_00317 + x_00318 + x_00319 + x_00320 + x_00321 + x_00322 + x_00323 + x_00324 + x_00325 + x_00326 + x_00327 + x_00328 + x_00329 + x_00330 + x_00331 + x_00332 + x_00333 + x_00334 + x_00335 + x_00336 + x_00337 + x_00338 + x_00339 + x_00340 + x_00341 + x_00342 + x_00343 + x_00344 + x_00345 + x_00346 + x_00347 + x_00348 + x_00349 + x_00350 + x_00351 + x_00352 + x_00353 + x_00354 + x_00355 + x_00356 + x_00357 + x_00358 + x_00359 + x_00360 + x_00361 + x_00362 + x_00363 + x_00364 + x_00365 + x_00366 + x_00367 + x_00368 + x_00369 + x_00370 + x_00371 + x_00372 + x_00373 + x_00374 + x_00375 + x_00376 + x_00377 + x_00378 + x_00379 + x_00380 + x_00381 + x_00382 + x_00383 + x_00384 + x_00385 + x_00386 + x_00387 + x_00388 + x_00389 + x_00390 + x_00391 + x_00392 + x_00393 + x_00394 + x_00395 + x_00396 + x_00397 + x_00398 + x_00399 + x_00400 + x_00401 + x_00402 + x_00403 + x_00404 + x_00405 + x_00406 + x_00407 + x_00408 + x_00409 + x_00410 + x_00411 + x_00412 + x_00413 + x_00414 + x_00415 + x_00416 + x_00417 + x_00418 + x_00419 + x_00420 + x_00421 + x_00422 + x_00423 + x_00424 + x_00425 + x_00426 + x_00427 + x_00428 + x_00429 + x_00430 + x_00431 + x_00432 + x_00433 + x_00434 + x_00435 + x_00436 + x_00437 + x_00438 + x_00439 + x_00440 + x_00441 + x_00442 + x_00443 + x_00444 + x_00445 + x_00446 + x_00447 + x_00448 + x_00449 + x_00450 + x_00451 + x_00452 + x_00453 + x_00454 + x_00455 + x_00456 + x_00457 + x_00458 + x_00459 + x_00460 + x_00461 + x_00462 + x_00463 + x_00464 + x_00465 + x_00466 + x_00467 + x_00468 + x_00469 + x_00470 + x_00471 + x_00472 + x_00473 + x_00474 + x_00475 + x_00476 + x_00477 + x_00478 + x_00479 + x_00480 + x_00481 + x_00482 + x_00483 + x_00484 + x_00485 + x_00486 + x_00487 + x_00488 + x_00489 + x_00490 + x_00491 + x_00492 + x_00493 + x_00494 + x_00495 + x_00496 + x_00497 + x_00498 + x_00499 + x_00500 + x_00501 + x_00502 + x_00503 + x_00504 + x_00505 + x_00506 + x_00507 + x_00508 + x_00509 + x_00510 + x_00511 + x_00512 + x_00513 + x_00514 + x_00515 + x_00516 + x_00517 + x_00518 + x_00519 + x_00520 + x_00521 + x_00522 + x_00523 + x_00524 + x_00525 + x_00526 + x_00527 + x_00528 + x_00529 + x_00530 + x_00531 + x_00532 + x_00533 + x_00534 + x_00535 + x_00536 + x_00537 + x_00538 + x_00539 + x_00540 + x_00541 + x_00542 + x_00543 + x_00544 + x_00545 + x_00546 + x_00547 + x_00548 + x_00549 + x_00550 + x_00551 + x_00552 + x_00553 + x_00554 + x_00555 + x_00556 + x_00557 + x_00558 + x_00559 + x_00560 + x_00561 + x_00562 + x_00563 + x_00564 + x_00565 + x_00566 + x_00567 + x_00568 + x_00569 + x_00570 + x_00571 + x_00572 + x_00573 + x_00574 + x_00575 + x_00576 + x_00577 + x_00578 + x_00579 + x_00580 + x_00581 + x_00582 + x_00583 + x_00584 + x_00585 + x_00586 + x_00587 + x_00588 + x_00589 + x_00590 + x_00591 + x_00592 + x_00593 + x_00594 + x_00595 + x_00596 + x_00597 + x_00598 + x_00599 + x_00600 + x_00601 + x_00602 + x_00603 + x_00604 + x_00605 + x_00606 + x_00607 + x_00608 + x_00609 + x_00610 + x_00611 + x_00612 + x_00613 + x_00614 + x_00615 + x_00616 + x_00617 + x_00618 + x_00619 + x_00620 + x_00621 + x_00622 + x_00623 + x_00624 + x_00625 + x_00626 + x_00627 + x_00628 + x_00629 + x_00630 + x_00631 + x_00632 + x_00633 + x_00634 + x_00635 + x_00636 + x_00637 + x_00638 + x_00639 + x_00640 + x_00641 + x_00642 + x_00643 + x_00644 + x_00645 + x_00646 + x_00647 + x_00648 + x_00649 + x_00650 + x_00651 + x_00652 + x_00653 + x_00654 + x_00655 + x_00656 + x_00657 + x_00658 + x_00659 + x_00660 + x_00661 + x_00662 + x_00663 + x_00664 + x_00665 + x_00666 + x_00667 + x_00668 + x_00669 + x_00670 + x_00671 + x_00672 + x_00673 + x_00674 + x_00675 + x_00676 + x_00677 + x_00678 + x_00679 + x_00680 + x_00681 + x_00682 + x_00683 + x_00684 + x_00685 + x_00686 + x_00687 + x_00688 + x_00689 + x_00690 + x_00691 + x_00692 + x_00693 + x_00694 + x_00695 + x_00696 + x_00697 + x_00698 + x_00699 + x_00700 + x_00701 + x_00702 + x_00703 + x_00704 + x_00705 + x_00706 + x_00707 + x_00708 + x_00709 + x_00710 + x_00711 + x_00712 + x_00713 + x_00714 + x_00715 + x_00716 + x_00717 + x_00718 + x_00719 + x_00720 + x_00721 + x_00722 + x_00723 + x_00724 + x_00725 + x_00726 + x_00727 + x_00728 + x_00729 + x_00730 + x_00731 + x_00732 + x_00733 + x_00734 + x_00735 + x_00736 + x_00737 + x_00738 + x_00739 + x_00740 + x_00741 + x_00742 + x_00743 + x_00744 + x_00745 + x_00746 + x_00747 + x_00748 + x_00749 + x_00750 + x_00751 + x_00752 + x_00753 + x_00754 + x_00755 + x_00756 + x_00757 + x_00758 + x_00759 + x_00760 + x_00761 + x_00762 + x_00763 + x_00764 + x_00765 + x_00766 + x_00767 + x_00768 + x_00769 + x_00770 + x_00771 + x_00772 + x_00773 + x_00774 + x_00775 + x_00776 + x_00777 + x_00778 + x_00779 + x_00780 + x_00781 + x_00782 + x_00783 + x_00784 + x_00785 + x_00786 + x_00787 + x_00788 + x_00789 + x_00790 + x_00791 + x_00792 + x_00793 + x_00794 + x_00795 + x_00796 + x_00797 + x_00798 + x_00799 + x_00800 + x_00801 + x_00802 + x_00803 + x_00804 + x_00805 + x_00806 + x_00807 + x_00808 + x_00809 + x_00810 + x_00811 + x_00812 + x_00813 + x_00814 + x_00815 + x_00816 + x_00817 + x_00818 + x_00819 + x_00820 + x_00821 + x_00822 + x_00823 + x_00824 + x_00825 + x_00826 + x_00827 + x_00828 + x_00829 + x_00830 + x_00831 + x_00832 + x_00833 + x_00834 + x_00835 + x_00836 + x_00837 + x_00838 + x_00839 + x_00840 + x_00841 + x_00842 + x_00843 + x_00844 + x_00845 + x_00846 + x_00847 + x_00848 + x_00849 + x_00850 + x_00851 + x_00852 + x_00853 + x_00854 + x_00855 + x_00856 + x_00857 + x_00858 + x_00859 + x_00860 + x_00861 + x_00862 + x_00863 + x_00864 + x_00865 + x_00866 + x_00867 + x_00868 + x_00869 + x_00870 + x_00871 + x_00872 + x_00873 + x_00874 + x_00875 + x_00876 + x_00877 + x_00878 + x_00879 + x_00880 + x_00881 + x_00882 + x_00883 + x_00884 + x_00885 + x_00886 + x_00887 + x_00888 + x_00889 + x_00890 + x_00891 + x_00892 + x_00893 + x_00894 + x_00895 + x_00896 + x_00897 + x_00898 + x_00899 + x_00900 + x_00901 + x_00902 + x_00903 + x_00904 + x_00905 + x_00906 + x_00907 + x_00908 + x_00909 + x_00910 + x_00911 + x_00912 + x_00913 + x_00914 + x_00915 + x_00916 + x_00917 + x_00918 + x_00919 + x_00920 + x_00921 + x_00922 + x_00923 + x_00924 + x_00925 + x_00926 + x_00927 + x_00928 + x_00929 + x_00930 + x_00931 + x_00932 + x_00933 + x_00934 + x_00935 + x_00936 + x_00937 + x_00938 + x_00939 + x_00940 + x_00941 + x_00942 + x_00943 + x_00944 + x_00945 + x_00946 + x_00947 + x_00948 + x_00949 + x_00950 + x_00951 + x_00952 + x_00953 + x_00954 + x_00955 + x_00956 + x_00957 + x_00958 + x_00959 + x_00960 + x_00961 + x_00962 + x_00963 + x_00964 + x_00965 + x_00966 + x_00967 + x_00968 + x_00969 + x_00970 + x_00971 + x_00972 + x_00973 + x_00974 + x_00975 + x_00976 + x_00977 + x_00978 + x_00979 + x_00980 + x_00981 + x_00982 + x_00983 + x_00984 + x_00985 + x_00986 + x_00987 + x_00988 + x_00989 + x_00990 + x_00991 + x_00992 + x_00993 + x_00994 + x_00995 + x_00996 + x_00997 + x_00998 + x_00999 + x_01000 + x_01001 + x_01002 + x_01003 + x_01004 + x_01005 + x_01006 + x_01007 + x_01008 + x_01009 + x_01010 + x_01011 + x_01012 + x_01013 + x_01014 + x_01015 + x_01016 + x_01017 + x_01018 + x_01019 + x_01020 + x_01021 + x_01022 + x_01023 + x_01024 + x_01025 + x_01026 + x_01027 + x_01028 + x_01029 + x_01030 + x_01031 + x_01032 + x_01033 + x_01034 + x_01035 + x_01036 + x_01037 + x_01038 + x_01039 + x_01040 + x_01041 + x_01042 + x_01043 + x_01044 + x_01045 + x_01046 + x_01047 + x_01048 + x_01049 + x_01050 + x_01051 + x_01052 + x_01053 + x_01054 + x_01055 + x_01056 + x_01057 + x_01058 + x_01059 + x_01060 + x_01061 + x_01062 + x_01063 + x_01064 + x_01065 + x_01066 + x_01067 + x_01068 + x_01069 + x_01070 + x_01071 + x_01072 + x_01073 + x_01074 + x_01075 + x_01076 + x_01077 + x_01078 + x_01079 + x_01080 + x_01081 + x_01082 + x_01083 + x_01084 + x_01085 + x_01086 + x_01087 + x_01088 + x_01089 + x_01090 + x_01091 + x_01092 + x_01093 + x_01094 + x_01095 + x_01096 + x_01097 + x_01098 + x_01099 + x_01100 + x_01101 + x_01102 + x_01103 + x_01104 + x_01105 + x_01106 + x_01107 + x_01108 + x_01109 + x_01110 + x_01111 + x_01112 + x_01113 + x_01114 + x_01115 + x_01116 + x_01117 + x_01118 + x_01119 + x_01120 + x_01121 + x_01122 + x_01123 + x_01124 + x_01125 + x_01126 + x_01127 + x_01128 + x_01129 + x_01130 + x_01131 + x_01132 + x_01133 + x_01134 + x_01135 + x_01136 + x_01137 + x_01138 + x_01139 + x_01140 + x_01141 + x_01142 + x_01143 + x_01144 + x_01145 + x_01146 + x_01147 + x_01148 + x_01149 + x_01150 + x_01151 + x_01152 + x_01153 + x_01154 + x_01155 + x_01156 + x_01157 + x_01158 + x_01159 + x_01160 + x_01161 + x_01162 + x_01163 + x_01164 + x_01165 + x_01166 + x_01167 + x_01168 + x_01169 + x_01170 + x_01171 + x_01172 + x_01173 + x_01174 + x_01175 + x_01176 + x_01177 + x_01178 + x_01179 + x_01180 + x_01181 + x_01182 + x_01183 + x_01184 + x_01185 + x_01186 + x_01187 + x_01188 + x_01189 + x_01190 + x_01191 + x_01192 + x_01193 + x_01194 + x_01195 + x_01196 + x_01197 + x_01198 + x_01199 + x_01200 + x_01201 + x_01202 + x_01203 + x_01204 + x_01205 + x_01206 + x_01207 + x_01208 + x_01209 + x_01210 + x_01211 + x_01212 + x_01213 + x_01214 + x_01215 + x_01216 + x_01217 + x_01218 + x_01219 + x_01220 + x_01221 + x_01222 + x_01223 + x_01224 + x_01225 + x_01226 + x_01227 + x_01228 + x_01229 + x_01230 + x_01231 + x_01232 + x_01233 + x_01234 + x_01235 + x_01236 + x_01237 + x_01238 + x_01239 + x_01240 + x_01241 + x_01242 + x_01243 + x_01244 + x_01245 + x_01246 + x_01247 + x_01248 + x_01249 + x_01250 + x_01251 + x_01252 + x_01253 + x_01254 + x_01255 + x_01256 + x_01257 + x_01258 + x_01259 + x_01260 + x_01261 + x_01262 + x_01263 + x_01264 + x_01265 + x_01266 + x_01267 + x_01268 + x_01269 + x_01270 + x_01271 + x_01272 + x_01273 + x_01274 + x_01275 + x_01276 + x_01277 + x_01278 + x_01279 + x_01280 + x_01281 + x_01282 + x_01283 + x_01284 + x_01285 + x_01286 + x_01287 + x_01288 + x_01289 + x_01290 + x_01291 + x_01292 + x_01293 + x_01294 + x_01295 + x_01296 + x_01297 + x_01298 + x_01299 + x_01300 + x_01301 + x_01302 + x_01303 + x_01304 + x_01305 + x_01306 + x_01307 + x_01308 + x_01309 + x_01310 + x_01311 + x_01312 + x_01313 + x_01314 + x_01315 + x_01316 + x_01317 + x_01318 + x_01319 + x_01320 + x_01321 + x_01322 + x_01323 + x_01324 + x_01325 + x_01326 + x_01327 + x_01328 + x_01329 + x_01330 + x_01331 + x_01332 + x_01333 + x_01334 + x_01335 + x_01336 + x_01337 + x_01338 + x_01339 + x_01340 + x_01341 + x_01342 + x_01343 + x_01344 + x_01345 + x_01346 + x_01347 + x_01348 + x_01349 + x_01350 + x_01351 + x_01352 + x_01353 + x_01354 + x_01355 + x_01356 + x_01357 + x_01358 + x_01359 + x_01360 + x_01361 + x_01362 + x_01363 + x_01364 + x_01365 + x_01366 + x_01367 + x_01368 + x_01369 + x_01370 + x_01371 + x_01372 + x_01373 + x_01374 + x_01375 + x_01376 + x_01377 + x_01378 + x_01379 + x_01380 + x_01381 + x_01382 + x_01383 + x_01384 + x_01385 + x_01386 + x_01387 + x_01388 + x_01389 + x_01390 + x_01391 + x_01392 + x_01393 + x_01394 + x_01395 + x_01396 + x_01397 + x_01398 + x_01399 + x_01400 + x_01401 + x_01402 + x_01403 + x_01404 + x_01405 + x_01406 + x_01407 + x_01408 + x_01409 + x_01410 + x_01411 + x_01412 + x_01413 + x_01414 + x_01415 + x_01416 + x_01417 + x_01418 + x_01419 + x_01420 + x_01421 + x_01422 + x_01423 + x_01424 + x_01425 + x_01426 + x_01427 + x_01428 + x_01429 + x_01430 + x_01431 + x_01432 + x_01433 + x_01434 + x_01435 + x_01436 + x_01437 + x_01438 + x_01439 + x_01440 + x_01441 + x_01442 + x_01443 + x_01444 + x_01445 + x_01446 + x_01447 + x_01448 + x_01449 + x_01450 + x_01451 + x_01452 + x_01453 + x_01454 + x_01455 + x_01456 + x_01457 + x_01458 + x_01459 + x_01460 + x_01461 + x_01462 + x_01463 + x_01464 + x_01465 + x_01466 + x_01467 + x_01468 + x_01469 + x_01470 + x_01471 + x_01472 + x_01473 + x_01474 + x_01475 + x_01476 + x_01477 + x_01478 + x_01479 + x_01480 + x_01481 + x_01482 + x_01483 + x_01484 + x_01485 + x_01486 + x_01487 + x_01488 + x_01489 + x_01490 + x_01491 + x_01492 + x_01493 + x_01494 + x_01495 + x_01496 + x_01497 + x_01498 + x_01499 + x_01500 + x_01501 + x_01502 + x_01503 + x_01504 + x_01505 + x_01506 + x_01507 + x_01508 + x_01509 + x_01510 + x_01511 + x_01512 + x_01513 + x_01514 + x_01515 + x_01516 + x_01517 + x_01518 + x_01519 + x_01520 + x_01521 + x_01522 + x_01523 + x_01524 + x_01525 + x_01526 + x_01527 + x_01528 + x_01529 + x_01530 + x_01531 + x_01532 + x_01533 + x_01534 + x_01535 + x_01536 + x_01537 + x_01538 + x_01539 + x_01540 + x_01541 + x_01542 + x_01543 + x_01544 + x_01545 + x_01546 + x_01547 + x_01548 + x_01549 + x_01550 + x_01551 + x_01552 + x_01553 + x_01554 + x_01555 + x_01556 + x_01557 + x_01558 + x_01559 + x_01560 + x_01561 + x_01562 + x_01563 + x_01564 + x_01565 + x_01566 + x_01567 + x_01568 + x_01569 + x_01570 + x_01571 + x_01572 + x_01573 + x_01574 + x_01575 + x_01576 + x_01577 + x_01578 + x_01579 + x_01580 + x_01581 + x_01582 + x_01583 + x_01584 + x_01585 + x_01586 + x_01587 + x_01588 + x_01589 + x_01590 + x_01591 + x_01592 + x_01593 + x_01594 + x_01595 + x_01596 + x_01597 + x_01598 + x_01599 + x_01600 + x_01601 + x_01602 + x_01603 + x_01604 + x_01605 + x_01606 + x_01607 + x_01608 + x_01609 + x_01610 + x_01611 + x_01612 + x_01613 + x_01614 + x_01615 + x_01616 + x_01617 + x_01618 + x_01619 + x_01620 + x_01621 + x_01622 + x_01623 + x_01624 + x_01625 + x_01626 + x_01627 + x_01628 + x_01629 + x_01630 + x_01631 + x_01632 + x_01633 + x_01634 + x_01635 + x_01636 + x_01637 + x_01638 + x_01639 + x_01640 + x_01641 + x_01642 + x_01643 + x_01644 + x_01645 + x_01646 + x_01647 + x_01648 + x_01649 + x_01650 + x_01651 + x_01652 + x_01653 + x_01654 + x_01655 + x_01656 + x_01657 + x_01658 + x_01659 + x_01660 + x_01661 + x_01662 + x_01663 + x_01664 + x_01665 + x_01666 + x_01667 + x_01668 + x_01669 + x_01670 + x_01671 + x_01672 + x_01673 + x_01674 + x_01675 + x_01676 + x_01677 + x_01678 + x_01679 + x_01680 + x_01681 + x_01682 + x_01683 + x_01684 + x_01685 + x_01686 + x_01687 + x_01688 + x_01689 + x_01690 + x_01691 + x_01692 + x_01693 + x_01694 + x_01695 + x_01696 + x_01697 + x_01698 + x_01699 + x_01700 + x_01701 + x_01702 + x_01703 + x_01704 + x_01705 + x_01706 + x_01707 + x_01708 + x_01709 + x_01710 + x_01711 + x_01712 + x_01713 + x_01714 + x_01715 + x_01716 + x_01717 + x_01718 + x_01719 + x_01720 + x_01721 + x_01722 + x_01723 + x_01724 + x_01725 + x_01726 + x_01727 + x_01728 + x_01729 + x_01730 + x_01731 + x_01732 + x_01733 + x_01734 + x_01735 + x_01736 + x_01737 + x_01738 + x_01739 + x_01740 + x_01741 + x_01742 + x_01743 + x_01744 + x_01745 + x_01746 + x_01747 + x_01748 + x_01749 + x_01750 + x_01751 + x_01752 + x_01753 + x_01754 + x_01755 + x_01756 + x_01757 + x_01758 + x_01759 + x_01760 + x_01761 + x_01762 + x_01763 + x_01764 + x_01765 + x_01766 + x_01767 + x_01768 + x_01769 + x_01770 + x_01771 + x_01772 + x_01773 + x_01774 + x_01775 + x_01776 + x_01777 + x_01778 + x_01779 + x_01780 + x_01781 + x_01782 + x_01783 + x_01784 + x_01785 + x_01786 + x_01787 + x_01788 + x_01789 + x_01790 + x_01791 + x_01792 + x_01793 + x_01794 + x_01795 + x_01796 + x_01797 + x_01798 + x_01799 + x_01800 + x_01801 + x_01802 + x_01803 + x_01804 + x_01805 + x_01806 + x_01807 + x_01808 + x_01809 + x_01810 + x_01811 + x_01812 + x_01813 + x_01814 + x_01815 + x_01816 + x_01817 + x_01818 + x_01819 + x_01820 + x_01821 + x_01822 + x_01823 + x_01824 + x_01825 + x_01826 + x_01827 + x_01828 + x_01829 + x_01830 + x_01831 + x_01832 + x_01833 + x_01834 + x_01835 + x_01836 + x_01837 + x_01838 + x_01839 + x_01840 + x_01841 + x_01842 + x_01843 + x_01844 + x_01845 + x_01846 + x_01847 + x_01848 + x_01849 + x_01850 + x_01851 + x_01852 + x_01853 + x_01854 + x_01855 + x_01856 + x_01857 + x_01858 + x_01859 + x_01860 + x_01861 + x_01862 + x_01863 + x_01864 + x_01865 + x_01866 + x_01867 + x_01868 + x_01869 + x_01870 + x_01871 + x_01872 + x_01873 + x_01874 + x_01875 + x_01876 + x_01877 + x_01878 + x_01879 + x_01880 + x_01881 + x_01882 + x_01883 + x_01884 + x_01885 + x_01886 + x_01887 + x_01888 + x_01889 + x_01890 + x_01891 + x_01892 + x_01893 + x_01894 + x_01895 + x_01896 + x_01897 + x_01898 + x_01899 + x_01900 + x_01901 + x_01902 + x_01903 + x_01904 + x_01905 + x_01906 + x_01907 + x_01908 + x_01909 + x_01910 + x_01911 + x_01912 + x_01913 + x_01914 + x_01915 + x_01916 + x_01917 + x_01918 + x_01919 + x_01920 + x_01921 + x_01922 + x_01923 + x_01924 + x_01925 + x_01926 + x_01927 + x_01928 + x_01929 + x_01930 + x_01931 + x_01932 + x_01933 + x_01934 + x_01935 + x_01936 + x_01937 + x_01938 + x_01939 + x_01940 + x_01941 + x_01942 + x_01943 + x_01944 + x_01945 + x_01946 + x_01947 + x_01948 + x_01949 + x_01950 + x_01951 + x_01952 + x_01953 + x_01954 + x_01955 + x_01956 + x_01957 + x_01958 + x_01959 + x_01960 + x_01961 + x_01962 + x_01963 + x_01964 + x_01965 + x_01966 + x_01967 + x_01968 + x_01969 + x_01970 + x_01971 + x_01972 + x_01973 + x_01974 + x_01975 + x_01976 + x_01977 + x_01978 + x_01979 + x_01980 + x_01981 + x_01982 + x_01983 + x_01984 + x_01985 + x_01986 + x_01987 + x_01988 + x_01989 + x_01990 + x_01991 + x_01992 + x_01993 + x_01994 + x_01995 + x_01996 + x_01997 + x_01998 + x_01999 + x_02000 + x_02001 + x_02002 + x_02003 + x_02004 + x_02005 + x_02006 + x_02007 + x_02008 + x_02009 + x_02010 + x_02011 + x_02012 + x_02013 + x_02014 + x_02015 + x_02016 + x_02017 + x_02018 + x_02019 + x_02020 + x_02021 + x_02022 + x_02023 + x_02024 + x_02025 + x_02026 + x_02027 + x_02028 + x_02029 + x_02030 + x_02031 + x_02032 + x_02033 + x_02034 + x_02035 + x_02036 + x_02037 + x_02038 + x_02039 + x_02040 + x_02041 + x_02042 + x_02043 + x_02044 + x_02045 + x_02046 + x_02047 + x_02048 + x_02049 + x_02050 - y_2_1 - y_2_2 - y_2_3 - y_2_4 - y_2_5 - y_2_6 - y_2_7 - y_2_8 - y_2_9 - y_2_10 - y_2_11 - y_2_12 - y_2_13 - y_2_14 - y_2_15 - y_2_16 - y_2_17 - y_2_18 - y_2_19 - y_2_20 - y_2_21 - y_2_22 - y_2_23 - y_2_24 - y_2_25 - y_2_26 - y_2_27 - y_2_28 - y_2_29 - y_2_30 - y_2_31 - y_2_32 - y_2_33 - y_2_34 - y_2_35 - y_2_36 - y_2_37 - y_2_38 - y_2_39 - y_2_40 - y_2_41 - y_2_42 - y_2_43 - y_2_44 - y_2_45 - y_2_46 - y_2_47 - y_2_48 - y_2_49 - y_2_50 - y_2_51 - y_2_52 - y_2_53 - y_2_54 - y_2_55 - y_2_56 - y_2_57 - y_2_58 - y_2_59 - y_2_60 - y_2_61 - y_2_62 - y_2_63 - y_2_64 - y_2_65 - y_2_66 - y_2_67 - y_2_68 - y_2_69 = 0
 r0140: x_01248 + x_01249 + x_01250 + x_01251 + x_01252 + x_01253 + x_01254 + x_01255 + x_01256 + x_01257 + x_01258 + x_01259 + x_01260 + x_01261 + x_01262 + x_01263 + x_01264 + x_01265 + x_01266 + x_01267 + x_01268 + x_01269 + x_01270 + x_01271 + x_01272 + x_01273 + x_01274 + x_01275 + x_01276 + x_01277 + x_01278 + x_01279 + x_01280 + x_01281 + x_01282 + x_01283 + x_01284 + x_01285 + x_01286 + x_01287 + x_01288 + x_01289 + x_01290 + x_01291 + x_01292 + x_01293 + x_01294 + x_01295 + x_01296 + x_01297 + x_01298 + x_01299 + x_01300 + x_01301 + x_01302 + x_01303 + x_01304 + x_01305 + x_01306 + x_01307 + x_01308 + x_01309 + x_01310 + x_01311 + x_01312 + x_01313 + x_01314 + x_01315 + x_01316 + x_01317 + x_01318 + x_01319 + x_01320 + x_01321 + x_01322 + x_01323 + x_01324 + x_01325 + x_01326 + x_01327 + x_01328 + x_01329 + x_01330 + x_01331 + x_01332 + x_01333 + x_01334 + x_01335 + x_01336 + x_01337 + x_01338 + x_01339 + x_01340 + x_01341 + x_01342 + x_01343 + x_01344 + x_01345 + x_01346 + x_01347 + x_01348 + x_01349 + x_01350 + x_01351 + x_01352 + x_01353 + x_01354 + x_01355 + x_01356 + x_01357 + x_01358 + x_01359 + x_01360 + x_01361 + x_01362 + x_01363 + x_01364 + x_01365 + x_01366 + x_01367 + x_01368 + x_01369 + x_01370 + x_01371 + x_01372 + x_01373 + x_01374 + x_01375 + x_01376 + x_01377 + x_01378 + x_01379 + x_01380 + x_01381 + x_01382 + x_01383 + x_01384 + x_01385 + x_01386 + x_01387 + x_01388 + x_01389 + x_01390 + x_01391 + x_01392 + x_01393 + x_01394 + x_01395 + x_01396 + x_01397 + x_01398 + x_01399 + x_01400 + x_01401 + x_01402 + x_01403 + x_01404 + x_01405 + x_01406 + x_01407 + x_01408 + x_01409 + x_01410 + x_01411 + x_01412 + x_01413 + x_01414 + x_01415 + x_01416 + x_01417 + x_01418 + x_01419 + x_01420 + x_01421 + x_01422 + x_01423 + x_01424 + x_01425 + x_01426 + x_01427 + x_01428 + x_01429 + x_01430 + x_01431 + x_01432 + x_01433 + x_01434 + x_01435 + x_01436 + x_01437 + x_01438 + x_01439 + x_01440 + x_01441 + x_01442 + x_01443 + x_01444 + x_01445 + x_01446 + x_01447 + x_01448 + x_01449 + x_01450 + x_01451 + x_01452 + x_01453 + x_01454 + x_01455 + x_01456 + x_01457 + x_01458 + x_01459 + x_01460 + x_01461 + x_01462 + x_01463 + x_01464 + x_01465 + x_01466 + x_01467 + x_01468 + x_01469 + x_01470 + x_01471 + x_01472 + x_01473 + x_01474 + x_01475 + x_01476 + x_01477 + x_01478 + x_01479 + x_01480 + x_01481 + x_01482 + x_01483 + x_01484 + x_01485 + x_01486 + x_01487 + x_01488 + x_01489 + x_01490 + x_01491 + x_01492 + x_01493 + x_01494 + x_01495 + x_01496 + x_01497 + x_01498 + x_01499 + x_01500 + x_01501 + x_01502 + x_01503 + x_01504 + x_01505 + x_01506 + x_01507 + x_01508 + x_01509 + x_01510 + x_01511 + x_01512 + x_01513 + x_01514 + x_01515 + x_01516 + x_01517 + x_01518 + x_01519 + x_01520 + x_01521 + x_01522 + x_01523 + x_01524 + x_01525 + x_01526 + x_01527 + x_01528 + x_01529 + x_01530 + x_01531 + x_01532 + x_01533 + x_01534 + x_01535 + x_01536 + x_01537 + x_01538 + x_01539 + x_01540 + x_01541 + x_01542 + x_01543 + x_01544 + x_01545 + x_01546 + x_01547 + x_01548 + x_01549 + x_01550 + x_01551 + x_01552 + x_01553 + x_01554 + x_01555 + x_01556 + x_01557 + x_01558 + x_01559 + x_01560 + x_01561 + x_01562 + x_01563 + x_01564 + x_01565 + x_01566 + x_01567 + x_01568 + x_01569 + x_01570 + x_01571 + x_01572 + x_01573 + x_01574 + x_01575 + x_01576 + x_01577 + x_01578 + x_01579 + x_01580 + x_01581 + x_01582 + x_01583 + x_01584 + x_01585 + x_01586 + x_01587 + x_01588 + x_01589 + x_01590 + x_01591 + x_01592 + x_01593 + x_01594 + x_01595 + x_01596 + x_01597 + x_01598 + x_01599 + x_01600 + x_01601 + x_01602 + x_01603 + x_01604 + x_01605 + x_01606 + x_01607 + x_01608 + x_01609 + x_01610 + x_01611 + x_01612 + x_01613 + x_01614 + x_01615 + x_01616 + x_01617 + x_01618 + x_01619 + x_01620 + x_01621 + x_01622 + x_01623 + x_01624 + x_01625 + x_01626 + x_01627 + x_01628 + x_01629 + x_01630 + x_01631 + x_01632 + x_01633 + x_01634 + x_01635 + x_01636 + x_01637 + x_01638 + x_01639 + x_01640 + x_01641 + x_01642 + x_01643 + x_01644 + x_01645 + x_01646 + x_01647 + x_01648 + x_01649 + x_01650 + x_01651 + x_01652 + x_01653 + x_01654 + x_01655 + x_01656 + x_01657 + x_01658 + x_01659 + x_01660 + x_01661 + x_01662 + x_01663 + x_01664 + x_01665 + x_01666 + x_01667 + x_01668 + x_01669 + x_01670 + x_01671 + x_01672 + x_01673 + x_01674 + x_01675 + x_01676 + x_01677 + x_01678 + x_01679 + x_01680 + x_01681 + x_01682 + x_01683 + x_01684 + x_01685 + x_01686 + x_01687 + x_01688 + x_01689 + x_01690 + x_01691 + x_01692 + x_01693 + x_01694 + x_01695 + x_01696 + x_01697 + x_01698 + x_01699 + x_01700 + x_01701 + x_01702 + x_01703 + x_01704 + x_01705 + x_01706 + x_01707 + x_01708 + x_01709 + x_01710 + x_01711 + x_01712 + x_01713 + x_01714 + x_01715 + x_01716 + x_01717 + x_01718 + x_01719 + x_01720 + x_01721 + x_01722 + x_01723 + x_01724 + x_01725 + x_01726 + x_01727 + x_01728 + x_01729 + x_01730 + x_01731 + x_01732 + x_01733 + x_01734 + x_01735 + x_01736 + x_01737 + x_01738 + x_01739 + x_01740 + x_01741 + x_01742 + x_01743 + x_01744 + x_01745 + x_01746 + x_01747 + x_01748 + x_01749 + x_01750 + x_01751 + x_01752 + x_01753 + x_01754 + x_01755 + x_01756 + x_01757 + x_01758 + x_01759 + x_01760 + x_01761 + x_01762 + x_01763 + x_01764 + x_01765 + x_01766 + x_01767 + x_01768 + x_01769 + x_01770 + x_01771 + x_01772 + x_01773 + x_01774 + x_01775 + x_01776 + x_01777 + x_01778 + x_01779 + x_01780 + x_01781 + x_01782 + x_01783 + x_01784 + x_01785 + x_01786 + x_01787 + x_01788 + x_01789 + x_01790 + x_01791 + x_01792 + x_01793 + x_01794 + x_01795 + x_01796 + x_01797 + x_01798 + x_01799 + x_01800 + x_01801 + x_01802 + x_01803 + x_01804 + x_01805 + x_01806 + x_01807 + x_01808 + x_01809 + x_01810 + x_01811 + x_01812 + x_01813 + x_01814 + x_01815 + x_01816 + x_01817 + x_01818 + x_01819 + x_01820 + x_01821 + x_01822 + x_01823 + x_01824 + x_01825 + x_01826 + x_01827 + x_01828 + x_01829 + x_01830 + x_01831 + x_01832 + x_01833 + x_01834 + x_01835 + x_01836 + x_01837 + x_01838 + x_01839 + x_01840 + x_01841 + x_01842 + x_01843 + x_01844 + x_01845 + x_01846 + x_01847 + x_01848 + x_01849 + x_01850 + x_01851 + x_01852 + x_01853 + x_01854 + x_01855 + x_01856 + x_01857 + x_01858 + x_01859 + x_01860 + x_01861 + x_01862 + x_01863 + x_01864 + x_01865 + x_01866 + x_01867 + x_01868 + x_01869 + x_01870 + x_01871 + x_01872 + x_01873 + x_01874 + x_01875 + x_01876 + x_01877 + x_01878 + x_01879 + x_01880 + x_01881 + x_01882 + x_01883 + x_01884 + x_01885 + x_01886 + x_01887 + x_01888 + x_01889 + x_01890 + x_01891 + x_01892 + x_01893 + x_01894 + x_01895 + x_01896 + x_01897 + x_01898 + x_01899 + x_01900 + x_01901 + x_01902 + x_01903 + x_01904 + x_01905 + x_01906 + x_01907 + x_01908 + x_01909 + x_01910 + x_01911 + x_01912 + x_01913 + x_01914 + x_01915 + x_01916 + x_01917 + x_01918 + x_01919 + x_01920 + x_01921 + x_01922 + x_01923 + x_01924 + x_01925 + x_01926 + x_01927 + x_01928 + x_01929 + x_01930 + x_01931 + x_01932 + x_01933 + x_01934 + x_01935 + x_01936 + x_01937 + x_01938 + x_01939 + x_01940 + x_01941 + x_01942 + x_01943 + x_01944 + x_01945 + x_01946 + x_01947 + x_01948 + x_01949 + x_01950 + x_01951 + x_01952 + x_01953 + x_01954 + x_01955 + x_01956 + x_01957 + x_01958 + x_01959 + x_01960 + x_01961 + x_01962 + x_01963 + x_01964 + x_01965 + x_01966 + x_01967 + x_01968 + x_01969 + x_01970 + x_01971 + x_01972 + x_01973 + x_01974 + x_01975 + x_01976 + x_01977 + x_01978 + x_01979 + x_01980 + x_01981 + x_01982 + x_01983 + x_01984 + x_01985 + x_01986 + x_01987 + x_01988 + x_01989 + x_01990 + x_01991 + x_01992 + x_01993 + x_01994 + x_01995 + x_01996 + x_01997 + x_01998 + x_01999 + x_02000 + x_02001 + x_02002 + x_02003 + x_02004 + x_02005 + x_02006 + x_02007 + x_02008 + x_02009 + x_02010 + x_02011 + x_02012 + x_02013 + x_02014 + x_02015 + x_02016 + x_02017 + x_02018 + x_02019 + x_02020 + x_02021 + x_02022 + x_02023 + x_02024 + x_02025 + x_02026 + x_02027 + x_02028 + x_02029 + x_02030 + x_02031 + x_02032 + x_02033 + x_02034 + x_02035 + x_02036 + x_02037 + x_02038 + x_02039 + x_02040 + x_02041 + x_02042 + x_02043 + x_02044 + x_02045 + x_02046 + x_02047 + x_02048 + x_02049 + x_02050 - y_3_1 - y_3_2 - y_3_3 - y_3_4 - y_3_5 - y_3_6 - y_3_7 - y_3_8 - y_3_9 - y_3_10 - y_3_11 - y_3_12 - y_3_13 - y_3_14 - y_3_15 - y_3_16 - y_3_17 - y_3_18 - y_3_19 - y_3_20 - y_3_21 - y_3_22 - y_3_23 - y_3_24 - y_3_25 - y_3_26 - y_3_27 - y_3_28 - y_3_29 - y_3_30 - y_3_31 - y_3_32 - y_3_33 - y_3_34 - y_3_35 - y_3_36 - y_3_37 - y_3_38 - y_3_39 - y_3_40 - y_3_41 - y_3_42 - y_3_43 - y_3_44 - y_3_45 - y_3_46 = 0
 r0141: x_01987 + x_01988 + x_01989 + x_01990 + x_01991 + x_01992 + x_01993 + x_01994 + x_01995 + x_01996 + x_01997 + x_01998 + x_01999 + x_02000 + x_02001 + x_02002 + x_02003 + x_02004 + x_02005 + x_02006 + x_02007 + x_02008 + x_02009 + x_02010 + x_02011 + x_02012 + x_02013 + x_02014 + x_02015 + x_02016 + x_02017 + x_02018 + x_02019 + x_02020 + x_02021 + x_02022 + x_02023 + x_02024 + x_02025 + x_02026 + x_02027 + x_02028 + x_02029 + x_02030 + x_02031 + x_02032 + x_02033 + x_02034 + x_02035 + x_02036 + x_02037 + x_02038 + x_02039 + x_02040 + x_02041 + x_02042 + x_02043 + x_02044 + x_02045 + x_02046 + x_02047 + x_02048 + x_02049 + x_02050 - y_4_1 - y_4_2 - y_4_3 - y_4_4 - y_4_5 - y_4_6 - y_4_7 - y_4_8 - y_4_9 - y_4_10 - y_4_11 - y_4_12 - y_4_13 - y_4_14 - y_4_15 - y_4_16 - y_4_17 - y_4_18 - y_4_19 - y_4_20 - y_4_21 - y_4_22 - y_4_23 - y_4_24 - y_4_25 - y_4_26 - y_4_27 - y_4_28 - y_4_29 - y_4_30 - y_4_31 - y_4_32 - y_4_33 - y_4_34 = 0
Binary
 x_00000 x_00001 x_00002 x_00003 x_00004 x_00005 x_00006 x_00007 x_00008 x_00009 x_00010 x_00011
 x_00012 x_00013 x_00014 x_00015 x_00016 x_00017 x_00018 x_00019 x_00020 x_00021 x_00022 x_00023
 x_00024 x_00025 x_00026 x_00027 x_00028 x_00029 x_00030 x_00031 x_00032 x_00033 x_00034 x_00035
 x_00036 x_00037 x_00038 x_00039 x_00040 x_00041 x_00042 x_00043 x_00044 x_00045 x_00046 x_00047
 x_00048 x_00049 x_00050 x_00051 x_00052 x_00053 x_00054 x_00055 x_00056 x_00057 x_00058 x_00059
 x_00060 x_00061 x_00062 x_00063 x_00064 x_00065 x_00066 x_00067 x_00068 x_00069 x_00070 x_00071
 x_00072 x_00073 x_00074 x_00075 x_00076 x_00077 x_00078 x_00079 x_00080 x_00081 x_00082 x_00083
 x_00084 x_00085 x_00086 x_00087 x_00088 x_00089 x_00090 x_00091 x_00092 x_00093 x_00094 x_00095
 x_00096 x_00097 x_00098 x_00099 x_00100 x_00101 x_00102 x_00103 x_00104 x_00105 x_00106 x_00107
 x_00108 x_00109 x_00110 x_00111 x_00112 x_00113 x_00114 x_00115 x_00116 x_00117 x_00118 x_00119
 x_00120 x_00121 x_00122 x_00123 x_00124 x_00125 x_00126 x_00127 x_00128 x_00129 x_00130 x_00131
 x_00132 x_00133 x_00134 x_00135 x_00136 x_00137 x_00138 x_00139 x_00140 x_00141 x_00142 x_00143
 x_00144 x_00145 x_00146 x_00147 x_00148 x_00149 x_00150 x_00151 x_00152 x_00153 x_00154 x_00155
 x_00156 x_00157 x_00158 x_00159 x_00160 x_00161 x_00162 x_00163 x_00164 x_00165 x_00166 x_00167
 x_00168 x_00169 x_00170 x_00171 x_00172 x_00173 x_00174 x_00175 x_00176 x_00177 x_00178 x_00179
 x_00180 x_00181 x_00182 x_00183 x_00184 x_00185 x_00186 x_00187 x_00188 x_00189 x_00190 x_00191
 x_00192 x_00193 x_00194 x_00195 x_00196 x_00197 x_00198 x_00199 x_00200 x_00201 x_00202 x_00203
 x_00204 x_00205 x_00206 x_00207 x_00208 x_00209 x_00210 x_00211 x_00212 x_00213 x_00214 x_00215
 x_00216 x_00217 x_00218 x_00219 x_00220 x_00221 x_00222 x_00223 x_00224 x_00225 x_00226 x_00227
 x_00228 x_00229 x_00230 x_00231 x_00232 x_00233 x_00234 x_00235 x_00236 x_00237 x_00238 x_00239
 x_00240 x_00241 x_00242 x_00243 x_00244 x_00245 x_00246 x_00247 x_00248 x_00249 x_00250 x_00251
 x_00252 x_00253 x_00254 x_00255 x_00256 x_00257 x_00258 x_00259 x_00260 x_00261 x_00262 x_00263
 x_00264 x_00265 x_00266 x_00267 x_00268 x_00269 x_00270 x_00271 x_00272 x_00273 x_00274 x_00275
 x_00276 x_00277 x_00278 x_00279 x_00280 x_00281 x_00282 x_00283 x_00284 x_00285 x_00286 x_00287
 x_00288 x_00289 x_00290 x_00291 x_00292 x_00293 x_00294 x_00295 x_00296 x_00297 x_00298 x_00299
 x_00300 x_00301 x_00302 x_00303 x_00304 x_00305 x_00306 x_00307 x_00308 x_00309 x_00310 x_00311
 x_00312 x_00313 x_00314 x_00315 x_00316 x_00317 x_00318 x_00319 x_00320 x_00321 x_00322 x_00323
 x_00324 x_00325 x_00326 x_00327 x_00328 x_00329 x_00330 x_00331 x_00332 x_00333 x_00334 x_00335
 x_00336 x_00337 x_00338 x_00339 x_00340 x_00341 x_00342 x_00343 x_00344 x_00345 x_00346 x_00347
 x_00348 x_00349 x_00350 x_00351 x_00352 x_00353 x_00354 x_00355 x_00356 x_00357 x_00358 x_00359
 x_00360 x_00361 x_00362 x_00363 x_00364 x_00365 x_00366 x_00367 x_00368 x_00369 x_00370 x_00371
 x_00372 x_00373 x_00374 x_00375 x_00376 x_00377 x_00378 x_00379 x_00380 x_00381 x_00382 x_00383
 x_00384 x_00385 x_00386 x_00387 x_00388 x_00389 x_00390 x_00391 x_00392 x_00393 x_00394 x_00395
 x_00396 x_00397 x_00398 x_00399 x_00400 x_00401 x_00402 x_00403 x_00404 x_00405 x_00406 x_00407
 x_00408 x_00409 x_00410 x_00411 x_00412 x_00413 x_00414 x_00415 x_00416 x_00417 x_00418 x_00419
 x_00420 x_00421 x_00422 x_00423 x_00424 x_00425 x_00426 x_00427 x_00428 x_00429 x_00430 x_00431
 x_00432 x_00433 x_00434 x_00435 x_00436 x_00437 x_00438 x_00439 x_00440 x_00441 x_00442 x_00443
 x_00444 x_00445 x_00446 x_00447 x_00448 x_00449 x_00450 x_00451 x_00452 x_00453 x_00454 x_00455
 x_00456 x_00457 x_00458 x_00459 x_00460 x_00461 x_00462 x_00463 x_00464 x_00465 x_00466 x_00467
 x_00468 x_00469 x_00470 x_00471 x_00472 x_00473 x_00474 x_00475 x_00476 x_00477 x_00478 x_00479
 x_00480 x_00481 x_00482 x_00483 x_00484 x_00485 x_00486 x_00487 x_00488 x_00489 x_00490 x_00491
 x_00492 x_00493 x_00494 x_00495 x_00496 x_00497 x_00498 x_00499 x_00500 x_00501 x_00502 x_00503
 x_00504 x_00505 x_00506 x_00507 x_00508 x_00509 x_00510 x_00511 x_00512 x_00513 x_00514 x_00515
 x_00516 x_00517 x_00518 x_00519 x_00520 x_00521 x_00522 x_00523 x_00524 x_00525 x_00526 x_00527
 x_00528 x_00529 x_00530 x_00531 x_00532 x_00533 x_00534 x_00535 x_00536 x_00537 x_00538 x_00539
 x_00540 x_00541 x_00542 x_00543 x_00544 x_00545 x_00546 x_00547 x_00548 x_00549 x_00550 x_00551
 x_00552 x_00553 x_00554 x_00555 x_00556 x_00557 x_00558 x_00559 x_00560 x_00561 x_00562 x_00563
 x_00564 x_00565 x_00566 x_00567 x_00568 x_00569 x_00570 x_00571 x_00572 x_00573 x_00574 x_00575
 x_00576 x_00577 x_00578 x_00579 x_00580 x_00581 x_00582 x_00583 x_00584 x_00585 x_00586 x_00587
 x_00588 x_00589 x_00590 x_00591 x_00592 x_00593 x_00594 x_00595 x_00596 x_00597 x_00598 x_00599
 x_00600 x_00601 x_00602 x_00603 x_00604 x_00605 x_00606 x_00607 x_00608 x_00609 x_00610 x_00611
 x_00612 x_00613 x_00614 x_00615 x_00616 x_00617 x_00618 x_00619 x_00620 x_00621 x_00622 x_00623
 x_00624 x_00625 x_00626 x_00627 x_00628 x_00629 x_00630 x_00631 x_00632 x_00633 x_00634 x_00635
 x_00636 x_00637 x_00638 x_00639 x_00640 x_00641 x_00642 x_00643 x_00644 x_00645 x_00646 x_00647
 x_00648 x_00649 x_00650 x_00651 x_00652 x_00653 x_00654 x_00655 x_00656 x_00657 x_00658 x_00659
 x_00660 x_00661 x_00662 x_00663 x_00664 x_00665 x_00666 x_00667 x_00668 x_00669 x_00670 x_00671
 x_00672 x_00673 x_00674 x_00675 x_00676 x_00677 x_00678 x_00679 x_00680 x_00681 x_00682 x_00683
 x_00684 x_00685 x_00686 x_00687 x_00688 x_00689 x_00690 x_00691 x_00692 x_00693 x_00694 x_00695
 x_00696 x_00697 x_00698 x_00699 x_00700 x_00701 x_00702 x_00703 x_00704 x_00705 x_00706 x_00707
 x_00708 x_00709 x_00710 x_00711 x_00712 x_00713 x_00714 x_00715 x_00716 x_00717 x_00718 x_00719
 x_00720 x_00721 x_00722 x_00723 x_00724 x_00725 x_00726 x_00727 x_00728 x_00729 x_00730 x_00731
 x_00732 x_00733 x_00734 x_00735 x_00736 x_00737 x_00738 x_00739 x_00740 x_00741 x_00742 x_00743
 x_00744 x_00745 x_00746 x_00747 x_00748 x_00749 x_00750 x_00751 x_00752 x_00753 x_00754 x_00755
 x_00756 x_00757 x_00758 x_00759 x_00760 x_00761 x_00762 x_00763 x_00764 x_00765 x_00766 x_00767
 x_00768 x_00769 x_00770 x_00771 x_00772 x_00773 x_00774 x_00775 x_00776 x_00777 x_00778 x_00779
 x_00780 x_00781 x_00782 x_00783 x_00784 x_00785 x_00786 x_00787 x_00788 x_00789 x_00790 x_00791
 x_00792 x_00793 x_00794 x_00795 x_00796 x_00797 x_00798 x_00799 x_00800 x_00801 x_00802 x_00803
 x_00804 x_00805 x_00806 x_00807 x_00808 x_00809 x_00810 x_00811 x_00812 x_00813 x_00814 x_00815
 x_00816 x_00817 x_00818 x_00819 x_00820 x_00821 x_00822 x_00823 x_00824 x_00825 x_00826 x_00827
 x_00828 x_00829 x_00830 x_00831 x_00832 x_00833 x_00834 x_00835 x_00836 x_00837 x_00838 x_00839
 x_00840 x_00841 x_00842 x_00843 x_00844 x_00845 x_00846 x_00847 x_00848 x_00849 x_00850 x_00851
 x_00852 x_00853 x_00854 x_00855 x_00856 x_00857 x_00858 x_00859 x_00860 x_00861 x_00862 x_00863
 x_00864 x_00865 x_00866 x_00867 x_00868 x_00869 x_00870 x_00871 x_00872 x_00873 x_00874 x_00875
 x_00876 x_00877 x_00878 x_00879 x_00880 x_00881 x_00882 x_00883 x_00884 x_00885 x_00886 x_00887
 x_00888 x_00889 x_00890 x_00891 x_00892 x_00893 x_00894 x_00895 x_00896 x_00897 x_00898 x_00899
 x_00900 x_00901 x_00902 x_00903 x_00904 x_00905 x_00906 x_00907 x_00908 x_00909 x_00910 x_00911
 x_00912 x_00913 x_00914 x_00915 x_00916 x_00917 x_00918 x_00919 x_00920 x_00921 x_00922 x_00923
 x_00924 x_00925 x_00926 x_00927 x_00928 x_00929 x_00930 x_00931 x_00932 x_00933 x_00934 x_00935
 x_00936 x_00937 x_00938 x_00939 x_00940 x_00941 x_00942 x_00943 x_00944 x_00945 x_00946 x_00947
 x_00948 x_00949 x_00950 x_00951 x_00952 x_00953 x_00954 x_00955 x_00956 x_00957 x_00958 x_00959
 x_00960 x_00961 x_00962 x_00963 x_00964 x_00965 x_00966 x_00967 x_00968 x_00969 x_00970 x_00971
 x_00972 x_00973 x_00974 x_00975 x_00976 x_00977 x_00978 x_00979 x_00980 x_00981 x_00982 x_00983
 x_00984 x_00985 x_00986 x_00987 x_00988 x_00989 x_00990 x_00991 x_00992 x_00993 x_00994 x_00995
 x_00996 x_00997 x_00998 x_00999 x_01000 x_01001 x_01002 x_01003 x_01004 x_01005 x_01006 x_01007
 x_01008 x_01009 x_01010 x_01011 x_01012 x_01013 x_01014 x_01015 x_01016 x_01017 x_01018 x_01019
 x_01020 x_01021 x_01022 x_01023 x_01024 x_01025 x_01026 x_01027 x_01028 x_01029 x_01030 x_01031
 x_01032 x_01033 x_01034 x_01035 x_01036 x_01037 x_01038 x_01039 x_01040 x_01041 x_01042 x_01043
 x_01044 x_01045 x_01046 x_01047 x_01048 x_01049 x_01050 x_01051 x_01052 x_01053 x_01054 x_01055
 x_01056 x_01057 x_01058 x_01059 x_01060 x_01061 x_01062 x_01063 x_01064 x_01065 x_01066 x_01067
 x_01068 x_01069 x_01070 x_01071 x_01072 x_01073 x_01074 x_01075 x_01076 x_01077 x_01078 x_01079
 x_01080 x_01081 x_01082 x_01083 x_01084 x_01085 x_01086 x_01087 x_01088 x_01089 x_01090 x_01091
 x_01092 x_01093 x_01094 x_01095 x_01096 x_01097 x_01098 x_01099 x_01100 x_01101 x_01102 x_01103
 x_01104 x_01105 x_01106 x_01107 x_01108 x_01109 x_01110 x_01111 x_01112 x_01113 x_01114 x_01115
 x_01116 x_01117 x_01118 x_01119 x_01120 x_01121 x_01122 x_01123 x_01124 x_01125 x_01126 x_01127
 x_01128 x_01129 x_01130 x_01131 x_01132 x_01133 x_01134 x_01135 x_01136 x_01137 x_01138 x_01139
 x_01140 x_01141 x_01142 x_01143 x_01144 x_01145 x_01146 x_01147 x_01148 x_01149 x_01150 x_01151
 x_01152 x_01153 x_01154 x_01155 x_01156 x_01157 x_01158 x_01159 x_01160 x_01161 x_01162 x_01163
 x_01164 x_01165 x_01166 x_01167 x_01168 x_01169 x_01170 x_01171 x_01172 x_01173 x_01174 x_01175
 x_01176 x_01177 x_01178 x_01179 x_01180 x_01181 x_01182 x_01183 x_01184 x_01185 x_01186 x_01187
 x_01188 x_01189 x_01190 x_01191 x_01192 x_01193 x_01194 x_01195 x_01196 x_01197 x_01198 x_01199
 x_01200 x_01201 x_01202 x_01203 x_01204 x_01205 x_01206 x_01207 x_01208 x_01209 x_01210 x_01211
 x_01212 x_01213 x_01214 x_01215 x_01216 x_01217 x_01218 x_01219 x_01220 x_01221 x_01222 x_01223
 x_01224 x_01225 x_01226 x_01227 x_01228 x_01229 x_01230 x_01231 x_01232 x_01233 x_01234 x_01235
 x_01236 x_01237 x_01238 x_01239 x_01240 x_01241 x_01242 x_01243 x_01244 x_01245 x_01246 x_01247
 x_01248 x_01249 x_01250 x_01251 x_01252 x_01253 x_01254 x_01255 x_01256 x_01257 x_01258 x_01259
 x_01260 x_01261 x_01262 x_01263 x_01264 x_01265 x_01266 x_01267 x_01268 x_01269 x_01270 x_01271
 x_01272 x_01273 x_01274 x_01275 x_01276 x_01277 x_01278 x_01279 x_01280 x_01281 x_01282 x_01283
 x_01284 x_01285 x_01286 x_01287 x_01288 x_01289 x_01290 x_01291 x_01292 x_01293 x_01294 x_01295
 x_01296 x_01297 x_01298 x_01299 x_01300 x_01301 x_01302 x_01303 x_01304 x_01305 x_01306 x_01307
 x_01308 x_01309 x_01310 x_01311 x_01312 x_01313 x_01314 x_01315 x_01316 x_01317 x_01318 x_01319
 x_01320 x_01321 x_01322 x_01323 x_01324 x_01325 x_01326 x_01327 x_01328 x_01329 x_01330 x_01331
 x_01332 x_01333 x_01334 x_01335 x_01336 x_01337 x_01338 x_01339 x_01340 x_01341 x_01342 x_01343
 x_01344 x_01345 x_01346 x_01347 x_01348 x_01349 x_01350 x_01351 x_01352 x_01353 x_01354 x_01355
 x_01356 x_01357 x_01358 x_01359 x_01360 x_01361 x_01362 x_01363 x_01364 x_01365 x_01366 x_01367
 x_01368 x_01369 x_01370 x_01371 x_01372 x_01373 x_01374 x_01375 x_01376 x_01377 x_01378 x_01379
 x_01380 x_01381 x_01382 x_01383 x_01384 x_01385 x_01386 x_01387 x_01388 x_01389 x_01390 x_01391
 x_01392 x_01393 x_01394 x_01395 x_01396 x_01397 x_01398 x_01399 x_01400 x_01401 x_01402 x_01403
 x_01404 x_01405 x_01406 x_01407 x_01408 x_01409 x_01410 x_01411 x_01412 x_01413 x_01414 x_01415
 x_01416 x_01417 x_01418 x_01419 x_01420 x_01421 x_01422 x_01423 x_01424 x_01425 x_01426 x_01427
 x_01428 x_01429 x_01430 x_01431 x_01432 x_01433 x_01434 x_01435 x_01436 x_01437 x_01438 x_01439
 x_01440 x_01441 x_01442 x_01443 x_01444 x_01445 x_01446 x_01447 x_01448 x_01449 x_01450 x_01451
 x_01452 x_01453 x_01454 x_01455 x_01456 x_01457 x_01458 x_01459 x_01460 x_01461 x_01462 x_01463
 x_01464 x_01465 x_01466 x_01467 x_01468 x_01469 x_01470 x_01471 x_01472 x_01473 x_01474 x_01475
 x_01476 x_01477 x_01478 x_01479 x_01480 x_01481 x_01482 x_01483 x_01484 x_01485 x_01486 x_01487
 x_01488 x_01489 x_01490 x_01491 x_01492 x_01493 x_01494 x_01495 x_01496 x_01497 x_01498 x_01499
 x_01500 x_01501 x_01502 x_01503 x_01504 x_01505 x_01506 x_01507 x_01508 x_01509 x_01510 x_01511
 x_01512 x_01513 x_01514 x_01515 x_01516 x_01517 x_01518 x_01519 x_01520 x_01521 x_01522 x_01523
 x_01524 x_01525 x_01526 x_01527 x_01528 x_01529 x_01530 x_01531 x_01532 x_01533 x_01534 x_01535
 x_01536 x_01537 x_01538 x_01539 x_01540 x_01541 x_01542 x_01543 x_01544 x_01545 x_01546 x_01547
 x_01548 x_01549 x_01550 x_01551 x_01552 x_01553 x_01554 x_01555 x_01556 x_01557 x_01558 x_01559
 x_01560 x_01561 x_01562 x_01563 x_01564 x_01565 x_01566 x_01567 x_01568 x_01569 x_01570 x_01571
 x_01572 x_01573 x_01574 x_01575 x_01576 x_01577 x_01578 x_01579 x_01580 x_01581 x_01582 x_01583
 x_01584 x_01585 x_01586 x_01587 x_01588 x_01589 x_01590 x_01591 x_01592 x_01593 x_01594 x_01595
 x_01596 x_01597 x_01598 x_01599 x_01600 x_01601 x_01602 x_01603 x_01604 x_01605 x_01606 x_01607
 x_01608 x_01609 x_01610 x_01611 x_01612 x_01613 x_01614 x_01615 x_01616 x_01617 x_01618 x_01619
 x_01620 x_01621 x_01622 x_01623 x_01624 x_01625 x_01626 x_01627 x_01628 x_01629 x_01630 x_01631
 x_01632 x_01633 x_01634 x_01635 x_01636 x_01637 x_01638 x_01639 x_01640 x_01641 x_01642 x_01643
 x_01644 x_01645 x_01646 x_01647 x_01648 x_01649 x_01650 x_01651 x_01652 x_01653 x_01654 x_01655
 x_01656 x_01657 x_01658 x_01659 x_01660 x_01661 x_01662 x_01663 x_01664 x_01665 x_01666 x_01667
 x_01668 x_01669 x_01670 x_01671 x_01672 x_01673 x_01674 x_01675 x_01676 x_01677 x_01678 x_01679
 x_01680 x_01681 x_01682 x_01683 x_01684 x_01685 x_01686 x_01687 x_01688 x_01689 x_01690 x_01691
 x_01692 x_01693 x_01694 x_01695 x_01696 x_01697 x_01698 x_01699 x_01700 x_01701 x_01702 x_01703
 x_01704 x_01705 x_01706 x_01707 x_01708 x_01709 x_01710 x_01711 x_01712 x_01713 x_01714 x_01715
 x_01716 x_01717 x_01718 x_01719 x_01720 x_01721 x_01722 x_01723 x_01724 x_01725 x_01726 x_01727
 x_01728 x_01729 x_01730 x_01731 x_01732 x_01733 x_01734 x_01735 x_01736 x_01737 x_01738 x_01739
 x_01740 x_01741 x_01742 x_01743 x_01744 x_01745 x_01746 x_01747 x_01748 x_01749 x_01750 x_01751
 x_01752 x_01753 x_01754 x_01755 x_01756 x_01757 x_01758 x_01759 x_01760 x_01761 x_01762 x_01763
 x_01764 x_01765 x_01766 x_01767 x_01768 x_01769 x_01770 x_01771 x_01772 x_01773 x_01774 x_01775
 x_01776 x_01777 x_01778 x_01779 x_01780 x_01781 x_01782 x_01783 x_01784 x_01785 x_01786 x_01787
 x_01788 x_01789 x_01790 x_01791 x_01792 x_01793 x_01794 x_01795 x_01796 x_01797 x_01798 x_01799
 x_01800 x_01801 x_01802 x_01803 x_01804 x_01805 x_01806 x_01807 x_01808 x_01809 x_01810 x_01811
 x_01812 x_01813 x_01814 x_01815 x_01816 x_01817 x_01818 x_01819 x_01820 x_01821 x_01822 x_01823
 x_01824 x_01825 x_01826 x_01827 x_01828 x_01829 x_01830 x_01831 x_01832 x_01833 x_01834 x_01835
 x_01836 x_01837 x_01838 x_01839 x_01840 x_01841 x_01842 x_01843 x_01844 x_01845 x_01846 x_01847
 x_01848 x_01849 x_01850 x_01851 x_01852 x_01853 x_01854 x_01855 x_01856 x_01857 x_01858 x_01859
 x_01860 x_01861 x_01862 x_01863 x_01864 x_01865 x_01866 x_01867 x_01868 x_01869 x_01870 x_01871
 x_01872 x_01873 x_01874 x_01875 x_01876 x_01877 x_01878 x_01879 x_01880 x_01881 x_01882 x_01883
 x_01884 x_01885 x_01886 x_01887 x_01888 x_01889 x_01890 x_01891 x_01892 x_01893 x_01894 x_01895
 x_01896 x_01897 x_01898 x_01899 x_01900 x_01901 x_01902 x_01903 x_01904 x_01905 x_01906 x_01907
 x_01908 x_01909 x_01910 x_01911 x_01912 x_01913 x_01914 x_01915 x_01916 x_01917 x_01918 x_01919
 x_01920 x_01921 x_01922 x_01923 x_01924 x_01925 x_01926 x_01927 x_01928 x_01929 x_01930 x_01931
 x_01932 x_01933 x_01934 x_01935 x_01936 x_01937 x_01938 x_01939 x_01940 x_01941 x_01942 x_01943
 x_01944 x_01945 x_01946 x_01947 x_01948 x_01949 x_01950 x_01951 x_01952 x_01953 x_01954 x_01955
 x_01956 x_01957 x_01958 x_01959 x_01960 x_01961 x_01962 x_01963 x_01964 x_01965 x_01966 x_01967
 x_01968 x_01969 x_01970 x_01971 x_01972 x_01973 x_01974 x_01975 x_01976 x_01977 x_01978 x_01979
 x_01980 x_01981 x_01982 x_01983 x_01984 x_01985 x_01986 x_01987 x_01988 x_01989 x_01990 x_01991
 x_01992 x_01993 x_01994 x_01995 x_01996 x_01997 x_01998 x_01999 x_02000 x_02001 x_02002 x_02003
 x_02004 x_02005 x_02006 x_02007 x_02008 x_02009 x_02010 x_02011 x_02012 x_02013 x_02014 x_02015
 x_02016 x_02017 x_02018 x_02019 x_02020 x_02021 x_02022 x_02023 x_02024 x_02025 x_02026 x_02027
 x_02028 x_02029 x_02030 x_02031 x_02032 x_02033 x_02034 x_02035 x_02036 x_02037 x_02038 x_02039
 x_02040 x_02041 x_02042 x_02043 x_02044 x_02045 x_02046 x_02047 x_02048 x_02049 x_02050 y_1_1
 y_1_2 y_1_3 y_1_4 y_1_5 y_1_6 y_1_7 y_1_8 y_1_9 y_1_10 y_1_11 y_1_12 y_1_13
 y_1_14 y_1_15 y_1_16 y_1_17 y_1_18 y_1_19 y_1_20 y_1_21 y_1_22 y_1_23 y_1_24 y_1_25
 y_1_26 y_1_27 y_1_28 y_1_29 y_1_30 y_1_31 y_1_32 y_1_33 y_1_34 y_1_35 y_1_36 y_1_37
 y_1_38 y_1_39 y_1_40 y_1_41 y_1_42 y_1_43 y_1_44 y_1_45 y_1_46 y_1_47 y_1_48 y_1_49
 y_1_50 y_1_51 y_1_52 y_1_53 y_1_54 y_1_55 y_1_56 y_1_57 y_1_58 y_1_59 y_1_60 y_1_61
 y_1_62 y_1_63 y_1_64 y_1_65 y_1_66 y_1_67 y_1_68 y_1_69 y_1_70 y_1_71 y_1_72 y_1_73
 y_1_74 y_1_75 y_1_76 y_1_77 y_1_78 y_1_79 y_1_80 y_1_81 y_1_82 y_1_83 y_1_84 y_1_85
 y_1_86 y_1_87 y_1_88 y_1_89 y_1_90 y_1_91 y_1_92 y_1_93 y_1_94 y_1_95 y_1_96 y_1_97
 y_1_98 y_1_99 y_1_100 y_1_101 y_1_102 y_1_103 y_1_104 y_1_105 y_1_106 y_1_107 y_1_108 y_1_109
 y_1_110 y_1_111 y_1_112 y_1_113 y_1_114 y_1_115 y_1_116 y_1_117 y_1_118 y_1_119 y_1_120 y_1_121
 y_1_122 y_1_123 y_1_124 y_1_125 y_1_126 y_1_127 y_1_128 y_1_129 y_1_130 y_1_131 y_1_132 y_1_133
 y_1_134 y_1_135 y_1_136 y_1_137 y_1_138 y_2_1 y_2_2 y_2_3 y_2_4 y_2_5 y_2_6 y_2_7
 y_2_8 y_2_9 y_2_10 y_2_11 y_2_12 y_2_13 y_2_14 y_2_15 y_2_16 y_2_17 y_2_18 y_2_19
 y_2_20 y_2_21 y_2_22 y_2_23 y_2_24 y_2_25 y_2_26 y_2_27 y_2_28 y_2_29 y_2_30 y_2_31
 y_2_32 y_2_33 y_2_34 y_2_35 y_2_36 y_2_37 y_2_38 y_2_39 y_2_40 y_2_41 y_2_42 y_2_43
 y_2_44 y_2_45 y_2_46 y_2_47 y_2_48 y_2_49 y_2_50 y_2_51 y_2_52 y_2_53 y_2_54 y_2_55
 y_2_56 y_2_57 y_2_58 y_2_59 y_2_60 y_2_61 y_2_62 y_2_63 y_2_64 y_2_65 y_2_66 y_2_67
 y_2_68 y_2_69 y_3_1 y_3_2 y_3_3 y_3_4 y_3_5 y_3_6 y_3_7 y_3_8 y_3_9 y_3_10
 y_3_11 y_3_12 y_3_13 y_3_14 y_3_15 y_3_16 y_3_17 y_3_18 y_3_19 y_3_20 y_3_21 y_3_22
 y_3_23 y_3_24 y_3_25 y_3_26 y_3_27 y_3_28 y_3_29 y_3_30 y_3_31 y_3_32 y_3_33 y_3_34
 y_3_35 y_3_36 y_3_37 y_3_38 y_3_39 y_3_40 y_3_41 y_3_42 y_3_43 y_3_44 y_3_45 y_3_46
 y_4_1 y_4_2 y_4_3 y_4_4 y_4_5 y_4_6 y_4_7 y_4_8 y_4_9 y_4_10 y_4_11 y_4_12
 y_4_13 y_4_14 y_4_15 y_4_16 y_4_17 y_4_18 y_4_19 y_4_20 y_4_21 y_4_22 y_4_23 y_4_24
 y_4_25 y_4_26 y_4_27 y_4_28 y_4_29 y_4_30 y_4_31 y_4_32 y_4_33 y_4_34
End
